*Heading
** 100x30 mm plate with two 8 mm dia holes
** Avg element length 4.0 mm, curvature-refined near holes, min length 0.9 mm
** Mesh: quad (S4R) + tri (S3R) shell elements, linear order
** Generated with Gmsh; FE model only (nodes + elements)
*NODE
1, 12.000000, 22.000000, 0.000000
2, 96.000000, 8.000000, 0.000000
3, 0.000000, 0.000000, 0.000000
4, 100.000000, 0.000000, 0.000000
5, 0.000000, 30.000000, 0.000000
6, 100.000000, 30.000000, 0.000000
7, 11.863703, 23.035276, 0.000000
8, 11.464102, 24.000000, 0.000000
9, 10.828427, 24.828427, 0.000000
10, 10.000000, 25.464102, 0.000000
11, 9.035276, 25.863703, 0.000000
12, 8.000000, 26.000000, 0.000000
13, 6.964724, 25.863703, 0.000000
14, 6.000000, 25.464102, 0.000000
15, 5.171573, 24.828427, 0.000000
16, 4.535898, 24.000000, 0.000000
17, 4.136297, 23.035276, 0.000000
18, 4.000000, 22.000000, 0.000000
19, 4.136297, 20.964724, 0.000000
20, 4.535898, 20.000000, 0.000000
21, 5.171573, 19.171573, 0.000000
22, 6.000000, 18.535898, 0.000000
23, 6.964724, 18.136297, 0.000000
24, 8.000000, 18.000000, 0.000000
25, 9.035276, 18.136297, 0.000000
26, 10.000000, 18.535898, 0.000000
27, 10.828427, 19.171573, 0.000000
28, 11.464102, 20.000000, 0.000000
29, 11.863703, 20.964724, 0.000000
30, 95.863703, 9.035276, 0.000000
31, 95.464102, 10.000000, 0.000000
32, 94.828427, 10.828427, 0.000000
33, 94.000000, 11.464102, 0.000000
34, 93.035276, 11.863703, 0.000000
35, 92.000000, 12.000000, 0.000000
36, 90.964724, 11.863703, 0.000000
37, 90.000000, 11.464102, 0.000000
38, 89.171573, 10.828427, 0.000000
39, 88.535898, 10.000000, 0.000000
40, 88.136297, 9.035276, 0.000000
41, 88.000000, 8.000000, 0.000000
42, 88.136297, 6.964724, 0.000000
43, 88.535898, 6.000000, 0.000000
44, 89.171573, 5.171573, 0.000000
45, 90.000000, 4.535898, 0.000000
46, 90.964724, 4.136297, 0.000000
47, 92.000000, 4.000000, 0.000000
48, 93.035276, 4.136297, 0.000000
49, 94.000000, 4.535898, 0.000000
50, 94.828427, 5.171573, 0.000000
51, 95.464102, 6.000000, 0.000000
52, 95.863703, 6.964724, 0.000000
53, 3.846154, 0.000000, 0.000000
54, 7.692308, 0.000000, 0.000000
55, 11.538462, 0.000000, 0.000000
56, 15.384615, 0.000000, 0.000000
57, 19.230769, 0.000000, 0.000000
58, 23.076923, 0.000000, 0.000000
59, 26.923077, 0.000000, 0.000000
60, 30.769231, 0.000000, 0.000000
61, 34.615385, 0.000000, 0.000000
62, 38.461538, 0.000000, 0.000000
63, 42.307692, 0.000000, 0.000000
64, 46.153846, 0.000000, 0.000000
65, 50.000000, 0.000000, 0.000000
66, 53.846154, 0.000000, 0.000000
67, 57.692308, 0.000000, 0.000000
68, 61.538462, 0.000000, 0.000000
69, 65.384615, 0.000000, 0.000000
70, 69.230769, 0.000000, 0.000000
71, 73.076923, 0.000000, 0.000000
72, 76.923077, 0.000000, 0.000000
73, 80.769231, 0.000000, 0.000000
74, 84.615385, 0.000000, 0.000000
75, 88.461538, 0.000000, 0.000000
76, 92.307692, 0.000000, 0.000000
77, 96.153846, 0.000000, 0.000000
78, 0.000000, 26.250000, 0.000000
79, 0.000000, 22.500000, 0.000000
80, 0.000000, 18.750000, 0.000000
81, 0.000000, 15.000000, 0.000000
82, 0.000000, 11.250000, 0.000000
83, 0.000000, 7.500000, 0.000000
84, 0.000000, 3.750000, 0.000000
85, 100.000000, 3.750000, 0.000000
86, 100.000000, 7.500000, 0.000000
87, 100.000000, 11.250000, 0.000000
88, 100.000000, 15.000000, 0.000000
89, 100.000000, 18.750000, 0.000000
90, 100.000000, 22.500000, 0.000000
91, 100.000000, 26.250000, 0.000000
92, 96.153846, 30.000000, 0.000000
93, 92.307692, 30.000000, 0.000000
94, 88.461538, 30.000000, 0.000000
95, 84.615385, 30.000000, 0.000000
96, 80.769231, 30.000000, 0.000000
97, 76.923077, 30.000000, 0.000000
98, 73.076923, 30.000000, 0.000000
99, 69.230769, 30.000000, 0.000000
100, 65.384615, 30.000000, 0.000000
101, 61.538462, 30.000000, 0.000000
102, 57.692308, 30.000000, 0.000000
103, 53.846154, 30.000000, 0.000000
104, 50.000000, 30.000000, 0.000000
105, 46.153846, 30.000000, 0.000000
106, 42.307692, 30.000000, 0.000000
107, 38.461538, 30.000000, 0.000000
108, 34.615385, 30.000000, 0.000000
109, 30.769231, 30.000000, 0.000000
110, 26.923077, 30.000000, 0.000000
111, 23.076923, 30.000000, 0.000000
112, 19.230769, 30.000000, 0.000000
113, 15.384615, 30.000000, 0.000000
114, 11.538462, 30.000000, 0.000000
115, 7.692308, 30.000000, 0.000000
116, 3.846154, 30.000000, 0.000000
117, 87.244297, 9.870002, 0.000000
118, 12.345596, 19.513845, 0.000000
119, 10.546151, 17.630162, 0.000000
120, 89.951835, 12.548881, 0.000000
121, 69.343690, 3.652977, 0.000000
122, 30.665620, 26.328750, 0.000000
123, 46.153119, 3.833083, 0.000000
124, 76.971517, 26.362786, 0.000000
125, 65.417621, 26.214148, 0.000000
126, 34.590347, 3.790145, 0.000000
127, 50.040192, 26.277173, 0.000000
128, 23.021714, 3.641784, 0.000000
129, 11.402906, 3.668145, 0.000000
130, 88.539774, 26.317650, 0.000000
131, 86.870940, 7.301109, 0.000000
132, 6.922357, 16.997368, 0.000000
133, 12.914004, 23.549933, 0.000000
134, 91.630092, 13.191780, 0.000000
135, 87.873542, 5.193437, 0.000000
136, 4.370497, 18.182866, 0.000000
137, 80.520642, 3.360806, 0.000000
138, 18.834726, 26.405207, 0.000000
139, 95.966700, 11.716960, 0.000000
140, 95.790910, 18.473295, 0.000000
141, 3.826231, 11.592260, 0.000000
142, 7.540289, 3.704840, 0.000000
143, 92.388483, 26.302192, 0.000000
144, 61.558086, 3.813603, 0.000000
145, 38.455045, 26.197220, 0.000000
146, 97.696862, 7.166093, 0.000000
147, 93.262632, 2.817995, 0.000000
148, 9.309301, 27.008249, 0.000000
149, 97.157834, 8.944969, 0.000000
150, 5.648077, 26.012801, 0.000000
151, 2.550085, 20.433938, 0.000000
152, 76.946652, 3.422890, 0.000000
153, 22.983687, 26.554565, 0.000000
154, 91.572426, 2.350885, 0.000000
155, 6.313664, 27.461193, 0.000000
156, 3.691781, 7.482136, 0.000000
157, 96.148229, 22.578337, 0.000000
158, 3.759173, 3.725355, 0.000000
159, 80.787387, 26.412160, 0.000000
160, 19.195934, 3.593125, 0.000000
161, 96.187387, 26.291005, 0.000000
162, 69.278589, 26.253466, 0.000000
163, 57.731030, 26.237382, 0.000000
164, 30.722277, 3.747173, 0.000000
165, 57.697360, 3.833141, 0.000000
166, 42.304372, 3.820844, 0.000000
167, 42.317851, 26.211638, 0.000000
168, 53.847353, 3.840288, 0.000000
169, 12.277632, 25.156085, 0.000000
170, 12.927386, 20.779646, 0.000000
171, 8.221617, 16.877821, 0.000000
172, 96.300668, 3.723094, 0.000000
173, 87.870186, 10.797145, 0.000000
174, 86.579066, 8.725191, 0.000000
175, 10.946954, 26.615960, 0.000000
176, 88.984444, 12.167998, 0.000000
177, 3.342064, 19.128742, 0.000000
178, 88.312273, 4.085761, 0.000000
179, 3.598909, 26.457837, 0.000000
180, 87.297407, 6.243929, 0.000000
181, 5.550460, 17.415698, 0.000000
182, 89.200471, 13.163645, 0.000000
183, 86.699319, 10.787044, 0.000000
184, 14.354213, 20.422200, 0.000000
185, 65.441873, 22.483270, 0.000000
186, 34.564604, 7.525720, 0.000000
187, 57.704687, 7.647868, 0.000000
188, 46.154019, 7.633921, 0.000000
189, 23.040320, 7.201033, 0.000000
190, 76.933050, 22.837379, 0.000000
191, 38.423842, 22.413455, 0.000000
192, 13.917761, 23.806307, 0.000000
193, 19.687103, 23.383722, 0.000000
194, 80.759730, 6.975057, 0.000000
195, 86.623669, 5.580509, 0.000000
196, 6.894432, 15.405584, 0.000000
197, 94.747251, 12.531339, 0.000000
198, 11.537730, 18.459205, 0.000000
199, 2.877488, 14.077512, 0.000000
200, 11.356186, 7.872400, 0.000000
201, 88.653399, 22.342302, 0.000000
202, 7.065140, 10.763568, 0.000000
203, 92.329236, 19.704979, 0.000000
204, 46.176432, 26.247072, 0.000000
205, 16.020211, 27.679890, 0.000000
206, 96.994426, 15.157465, 0.000000
207, 84.635407, 26.384008, 0.000000
208, 15.338638, 3.631872, 0.000000
209, 4.674800, 15.433601, 0.000000
210, 73.199738, 3.508647, 0.000000
211, 26.789604, 26.470578, 0.000000
212, 7.317826, 7.446164, 0.000000
213, 92.486466, 22.745530, 0.000000
214, 86.307560, 3.601818, 0.000000
215, 73.127006, 26.316051, 0.000000
216, 26.868778, 3.687942, 0.000000
217, 14.236958, 26.061609, 0.000000
218, 61.568209, 26.220862, 0.000000
219, 65.450335, 3.757812, 0.000000
220, 34.554047, 26.238450, 0.000000
221, 38.450435, 3.802823, 0.000000
222, 50.000223, 3.836974, 0.000000
223, 2.194715, 22.338266, 0.000000
224, 9.435588, 17.092715, 0.000000
225, 96.860624, 10.960999, 0.000000
226, 13.124527, 22.152388, 0.000000
227, 53.886219, 26.267937, 0.000000
228, 4.551284, 28.196552, 0.000000
229, 88.311657, 11.376674, 0.000000
230, 97.459809, 5.079067, 0.000000
231, 90.577539, 12.845517, 0.000000
232, 95.658998, 2.727828, 0.000000
233, 2.905018, 16.937254, 0.000000
234, 83.748860, 3.284759, 0.000000
235, 2.375793, 24.553952, 0.000000
236, 89.617958, 2.900929, 0.000000
237, 96.936933, 13.011464, 0.000000
238, 2.257608, 18.169438, 0.000000
239, 86.900213, 4.940365, 0.000000
240, 11.311935, 16.497746, 0.000000
241, 26.364064, 22.993871, 0.000000
242, 50.046075, 22.553855, 0.000000
243, 69.661756, 7.363474, 0.000000
244, 85.401509, 9.666922, 0.000000
245, 90.200558, 20.002628, 0.000000
246, 9.688352, 11.073899, 0.000000
247, 89.799118, 13.888409, 0.000000
248, 13.527642, 18.868760, 0.000000
249, 77.143754, 6.660134, 0.000000
250, 73.136840, 22.705112, 0.000000
251, 26.840325, 7.310742, 0.000000
252, 38.439012, 7.564066, 0.000000
253, 61.593073, 7.610258, 0.000000
254, 50.002292, 7.655785, 0.000000
255, 34.393686, 22.433815, 0.000000
256, 85.199341, 6.167124, 0.000000
257, 93.542457, 16.310071, 0.000000
258, 87.265884, 11.975944, 0.000000
259, 17.744645, 23.174424, 0.000000
260, 14.927440, 22.530713, 0.000000
261, 22.730763, 23.351855, 0.000000
262, 69.299017, 22.581245, 0.000000
263, 30.687763, 7.422767, 0.000000
264, 83.557105, 6.131347, 0.000000
265, 80.664298, 22.967694, 0.000000
266, 19.280834, 7.108669, 0.000000
267, 53.896030, 22.548224, 0.000000
268, 61.586501, 22.481589, 0.000000
269, 42.300832, 7.592121, 0.000000
270, 42.313728, 22.448246, 0.000000
271, 53.851438, 7.657666, 0.000000
272, 5.329285, 13.515327, 0.000000
273, 93.242581, 13.483645, 0.000000
274, 8.505827, 15.377126, 0.000000
275, 16.520531, 24.393045, 0.000000
276, 90.908801, 14.469474, 0.000000
277, 95.465218, 13.410827, 0.000000
278, 6.938258, 13.333601, 0.000000
279, 87.828878, 12.616285, 0.000000
280, 15.509472, 7.155287, 0.000000
281, 84.413432, 22.936986, 0.000000
282, 77.779487, 9.466075, 0.000000
283, 21.983675, 20.381299, 0.000000
284, 15.668467, 10.450024, 0.000000
285, 16.091937, 19.767081, 0.000000
286, 83.876607, 19.817690, 0.000000
287, 50.036113, 18.849620, 0.000000
288, 34.505791, 11.177558, 0.000000
289, 73.097056, 19.262431, 0.000000
290, 26.834269, 10.778575, 0.000000
291, 65.480289, 18.838065, 0.000000
292, 87.262125, 13.940914, 0.000000
293, 57.720935, 11.415034, 0.000000
294, 50.009561, 11.427519, 0.000000
295, 34.264500, 18.590799, 0.000000
296, 90.085703, 15.861585, 0.000000
297, 12.511144, 17.563527, 0.000000
298, 82.832554, 9.299533, 0.000000
299, 73.593370, 6.961255, 0.000000
300, 85.313305, 7.729143, 0.000000
301, 17.057484, 21.658566, 0.000000
302, 12.958180, 10.222604, 0.000000
303, 86.840837, 19.390748, 0.000000
304, 80.347562, 19.725500, 0.000000
305, 19.606658, 10.524370, 0.000000
306, 38.411363, 11.259072, 0.000000
307, 38.365351, 18.662050, 0.000000
308, 65.605734, 7.559273, 0.000000
309, 46.158634, 11.376355, 0.000000
310, 57.739244, 22.516886, 0.000000
311, 30.259047, 22.605171, 0.000000
312, 46.181740, 22.506292, 0.000000
313, 91.740213, 17.476334, 0.000000
314, 9.988539, 15.751047, 0.000000
315, 92.169577, 15.159179, 0.000000
316, 94.837845, 14.653365, 0.000000
317, 88.651775, 15.083150, 0.000000
318, 85.593641, 11.506482, 0.000000
319, 25.323573, 19.705746, 0.000000
320, 17.330719, 14.068327, 0.000000
321, 83.419031, 16.666697, 0.000000
322, 12.368543, 15.096359, 0.000000
323, 14.993413, 18.009647, 0.000000
324, 53.886246, 18.853405, 0.000000
325, 65.701814, 11.409828, 0.000000
326, 42.297222, 18.722919, 0.000000
327, 61.605405, 18.805408, 0.000000
328, 87.256238, 16.460800, 0.000000
329, 74.609426, 10.177776, 0.000000
330, 29.335409, 18.307934, 0.000000
331, 69.327634, 19.024400, 0.000000
332, 30.618072, 10.983048, 0.000000
333, 84.430885, 10.797771, 0.000000
334, 23.202917, 10.589462, 0.000000
335, 76.739890, 19.554280, 0.000000
336, 46.165793, 15.090160, 0.000000
337, 61.642349, 11.386599, 0.000000
338, 42.294575, 11.313043, 0.000000
339, 53.861725, 11.427208, 0.000000
340, 19.212418, 21.000277, 0.000000
341, 10.784005, 14.067060, 0.000000
342, 79.881376, 9.126121, 0.000000
343, 11.882434, 12.016677, 0.000000
344, 34.339685, 14.816783, 0.000000
345, 46.173179, 18.793070, 0.000000
346, 89.294045, 17.969196, 0.000000
347, 86.014813, 17.569460, 0.000000
348, 85.881113, 12.766114, 0.000000
349, 91.290109, 16.186485, 0.000000
350, 84.258614, 8.210329, 0.000000
351, 79.257378, 11.828168, 0.000000
352, 20.393987, 17.148707, 0.000000
353, 73.123913, 16.078690, 0.000000
354, 13.771879, 16.444896, 0.000000
355, 26.797240, 13.967318, 0.000000
356, 79.820592, 16.811368, 0.000000
357, 18.045013, 18.824119, 0.000000
358, 83.709008, 12.971221, 0.000000
359, 20.171307, 13.750524, 0.000000
360, 50.020664, 15.139938, 0.000000
361, 70.599192, 11.670813, 0.000000
362, 57.739681, 18.827796, 0.000000
363, 30.373977, 14.434943, 0.000000
364, 76.407913, 13.248793, 0.000000
365, 69.541994, 15.563794, 0.000000
366, 24.133709, 16.702932, 0.000000
367, 65.635066, 15.211583, 0.000000
368, 38.361534, 14.942387, 0.000000
369, 42.284304, 15.017167, 0.000000
370, 61.644863, 15.127887, 0.000000
371, 53.874148, 15.147491, 0.000000
372, 15.308575, 15.111185, 0.000000
373, 85.437039, 14.966665, 0.000000
374, 81.300518, 10.651059, 0.000000
375, 13.765781, 13.348571, 0.000000
376, 8.964829, 13.467047, 0.000000
377, 17.995768, 16.007587, 0.000000
378, 81.216164, 14.014635, 0.000000
379, 57.741976, 15.129966, 0.000000
380, 76.525702, 16.548633, 0.000000
381, 23.480839, 13.746278, 0.000000
382, 16.674867, 16.950120, 0.000000
383, 73.392800, 13.788973, 0.000000
384, 26.629219, 16.220594, 0.000000
385, 79.351107, 14.793430, 0.000000
*ELEMENT, TYPE=S4R, ELSET=SHELL_QUADS
1, 214, 75, 236, 178
2, 301, 259, 275, 260
3, 359, 381, 366, 352
4, 200, 280, 284, 302
5, 201, 281, 286, 303
6, 357, 382, 377, 352
7, 241, 319, 330, 311
8, 363, 355, 290, 332
9, 289, 331, 365, 353
10, 210, 299, 243, 121
11, 316, 206, 140, 257
12, 355, 363, 330, 384
13, 373, 321, 378, 358
14, 200, 246, 202, 212
15, 208, 280, 200, 129
16, 154, 76, 77, 147
17, 117, 183, 244, 174
18, 201, 245, 203, 213
19, 146, 86, 87, 149
20, 207, 281, 201, 130
21, 223, 79, 80, 151
22, 19, 151, 177, 20
23, 181, 209, 196, 132
24, 250, 262, 331, 289
25, 329, 282, 351, 364
26, 328, 347, 321, 373
27, 212, 142, 129, 200
28, 251, 263, 332, 290
29, 130, 201, 213, 143
30, 180, 131, 256, 195
31, 274, 196, 278, 376
32, 246, 376, 278, 202
33, 313, 257, 140, 203
34, 146, 230, 85, 86
35, 234, 264, 194, 137
36, 232, 77, 4, 172
37, 228, 116, 5, 179
38, 230, 172, 4, 85
39, 235, 179, 5, 78
40, 315, 257, 313, 349
41, 174, 244, 350, 300
42, 193, 138, 275, 259
43, 358, 378, 351, 374
44, 227, 127, 242, 267
45, 380, 356, 304, 335
46, 381, 359, 305, 334
47, 155, 115, 116, 228
48, 154, 236, 75, 76
49, 81, 199, 209, 233
50, 241, 261, 283, 319
51, 206, 237, 87, 88
52, 120, 231, 247, 182
53, 177, 151, 80, 238
54, 260, 275, 217, 192
55, 229, 258, 183, 173
56, 141, 199, 81, 82
57, 241, 211, 153, 261
58, 140, 206, 88, 89
59, 137, 73, 74, 234
60, 282, 342, 374, 351
61, 194, 264, 350, 298
62, 141, 156, 212, 202
63, 256, 214, 239, 195
64, 138, 112, 113, 205
65, 140, 157, 213, 203
66, 51, 50, 172, 230
67, 203, 245, 346, 313
68, 133, 169, 8, 7
69, 303, 347, 328, 346
70, 280, 208, 160, 266
71, 281, 207, 159, 265
72, 148, 10, 9, 175
73, 334, 305, 266, 189
74, 142, 212, 156, 158
75, 335, 304, 265, 190
76, 143, 213, 157, 161
77, 378, 385, 364, 351
78, 20, 177, 136, 21
79, 296, 346, 328, 317
80, 174, 300, 256, 131
81, 137, 152, 72, 73
82, 273, 316, 257, 315
83, 156, 141, 82, 83
84, 138, 153, 111, 112
85, 352, 366, 319, 283
86, 157, 140, 89, 90
87, 201, 303, 346, 245
88, 207, 130, 94, 95
89, 143, 93, 94, 130
90, 208, 129, 55, 56
91, 142, 54, 55, 129
92, 314, 274, 376, 341
93, 141, 272, 209, 199
94, 329, 299, 249, 282
95, 138, 205, 217, 275
96, 372, 375, 284, 320
97, 159, 207, 95, 96
98, 160, 208, 56, 57
99, 321, 347, 303, 286
100, 128, 189, 266, 160
101, 137, 194, 249, 152
102, 124, 190, 265, 159
103, 284, 375, 343, 302
104, 152, 210, 71, 72
105, 353, 365, 361, 383
106, 158, 53, 54, 142
107, 161, 92, 93, 143
108, 153, 211, 110, 111
109, 163, 227, 267, 310
110, 345, 287, 242, 312
111, 371, 324, 287, 360
112, 158, 156, 83, 84
113, 251, 216, 164, 263
114, 250, 215, 162, 262
115, 161, 157, 90, 91
116, 138, 193, 261, 153
117, 289, 353, 380, 335
118, 357, 352, 283, 340
119, 226, 260, 192, 133
120, 53, 158, 84, 3
121, 92, 161, 91, 6
122, 290, 355, 381, 334
123, 133, 192, 217, 169
124, 344, 288, 306, 368
125, 215, 124, 97, 98
126, 159, 96, 97, 124
127, 160, 57, 58, 128
128, 216, 128, 58, 59
129, 331, 291, 367, 365
130, 46, 45, 236, 154
131, 262, 185, 291, 331
132, 332, 288, 344, 363
133, 243, 361, 325, 308
134, 255, 220, 122, 311
135, 200, 302, 343, 246
136, 162, 215, 98, 99
137, 164, 216, 59, 60
138, 78, 79, 223, 235
139, 325, 367, 370, 337
140, 194, 342, 282, 249
141, 367, 291, 327, 370
142, 210, 152, 249, 299
143, 337, 253, 308, 325
144, 306, 288, 186, 252
145, 220, 255, 191, 145
146, 295, 255, 311, 330
147, 262, 162, 125, 185
148, 263, 164, 126, 186
149, 368, 306, 338, 369
150, 335, 190, 250, 289
151, 255, 295, 307, 191
152, 252, 269, 338, 306
153, 334, 189, 251, 290
154, 345, 326, 369, 336
155, 197, 139, 237, 277
156, 332, 263, 186, 288
157, 75, 214, 234, 74
158, 369, 326, 307, 368
159, 243, 308, 219, 121
160, 345, 312, 270, 326
161, 309, 338, 269, 188
162, 360, 336, 309, 294
163, 338, 309, 336, 369
164, 308, 253, 144, 219
165, 294, 309, 188, 254
166, 253, 337, 293, 187
167, 327, 291, 185, 268
168, 307, 326, 270, 191
169, 259, 301, 340, 193
170, 330, 363, 344, 295
171, 371, 339, 293, 379
172, 360, 294, 339, 371
173, 210, 121, 70, 71
174, 211, 122, 109, 110
175, 100, 101, 218, 125
176, 162, 99, 100, 125
177, 253, 187, 165, 144
178, 69, 219, 144, 68
179, 108, 220, 145, 107
180, 164, 60, 61, 126
181, 61, 62, 221, 126
182, 68, 144, 165, 67
183, 163, 218, 101, 102
184, 252, 221, 166, 269
185, 204, 167, 270, 312
186, 127, 204, 312, 242
187, 271, 339, 294, 254
188, 166, 221, 62, 63
189, 64, 123, 166, 63
190, 65, 222, 123, 64
191, 163, 102, 103, 227
192, 127, 104, 105, 204
193, 167, 204, 105, 106
194, 167, 106, 107, 145
195, 145, 191, 270, 167
196, 165, 187, 271, 168
197, 123, 222, 254, 188
198, 187, 293, 339, 271
199, 165, 168, 66, 67
200, 65, 66, 168, 222
201, 123, 188, 269, 166
202, 271, 254, 222, 168
203, 70, 121, 219, 69
204, 109, 122, 220, 108
205, 362, 310, 267, 324
206, 242, 287, 324, 267
207, 221, 252, 186, 126
208, 218, 268, 185, 125
209, 163, 310, 268, 218
210, 337, 370, 379, 293
211, 299, 329, 361, 243
212, 362, 324, 371, 379
213, 310, 362, 327, 268
214, 172, 50, 49, 232
215, 295, 344, 368, 307
216, 211, 241, 311, 122
217, 361, 365, 367, 325
218, 287, 345, 336, 360
219, 216, 251, 189, 128
220, 215, 250, 190, 124
221, 361, 329, 364, 383
222, 379, 370, 327, 362
223, 358, 348, 292, 373
224, 380, 353, 383, 364
225, 44, 178, 236, 45
226, 340, 301, 285, 357
227, 330, 319, 366, 384
228, 18, 17, 235, 223
229, 194, 298, 374, 342
230, 104, 127, 227, 103
231, 193, 340, 283, 261
232, 171, 274, 314, 224
233, 382, 372, 320, 377
234, 317, 328, 373, 292
235, 183, 318, 333, 244
236, 170, 29, 28, 118
237, 358, 374, 298, 333
238, 264, 256, 300, 350
239, 32, 31, 225, 139
240, 224, 119, 26, 25
241, 273, 197, 277, 316
242, 321, 356, 385, 378
243, 170, 118, 248, 184
244, 314, 240, 119, 224
245, 356, 380, 364, 385
246, 229, 38, 37, 176
247, 36, 35, 134, 231
248, 382, 357, 285, 323
249, 33, 197, 273, 34
250, 354, 297, 240, 322
251, 323, 285, 184, 248
252, 298, 350, 244, 333
253, 366, 381, 355, 384
254, 352, 377, 320, 359
255, 297, 198, 119, 240
256, 292, 182, 247, 317
257, 226, 1, 29, 170
258, 348, 358, 333, 318
259, 292, 279, 176, 182
260, 231, 120, 37, 36
261, 39, 38, 229, 173
262, 278, 196, 209, 272
263, 341, 322, 240, 314
264, 224, 25, 24, 171
265, 226, 133, 7, 1
266, 214, 178, 135, 239
267, 134, 276, 247, 231
268, 273, 315, 276, 134
269, 273, 134, 35, 34
270, 136, 177, 238, 233
271, 27, 26, 119, 198
272, 274, 171, 132, 196
273, 87, 237, 139, 225
274, 178, 44, 43, 135
275, 197, 33, 32, 139
276, 315, 349, 296, 276
277, 176, 279, 258, 229
278, 175, 9, 8, 169
279, 179, 150, 155, 228
280, 39, 173, 183, 117
281, 182, 176, 37, 120
282, 348, 258, 279, 292
283, 39, 117, 174, 40
284, 183, 258, 348, 318
285, 276, 296, 317, 247
286, 239, 135, 180, 195
287, 230, 146, 52, 51
288, 179, 235, 17, 16
289, 223, 151, 19, 18
290, 23, 132, 171, 24
291, 150, 13, 12, 155
292, 233, 209, 181, 136
293, 322, 375, 372, 354
294, 22, 181, 132, 23
295, 41, 131, 180, 42
296, 237, 206, 316, 277
297, 346, 296, 349, 313
298, 42, 180, 135, 43
299, 21, 136, 181, 22
300, 52, 146, 149, 2
301, 115, 155, 12, 148
302, 150, 179, 16, 15
303, 28, 27, 198, 118
304, 40, 174, 131, 41
305, 46, 154, 147, 47
306, 49, 147, 77, 232
307, 80, 81, 233, 238
308, 31, 149, 87, 225
309, 114, 217, 205, 113
310, 169, 217, 114, 175
311, 198, 297, 248, 118
312, 202, 278, 272, 141
313, 170, 184, 260, 226
314, 214, 256, 264, 234
315, 343, 341, 376, 246
316, 297, 354, 323, 248
317, 184, 285, 301, 260
318, 304, 286, 281, 265
319, 305, 284, 280, 266
320, 356, 321, 286, 304
321, 284, 305, 359, 320
322, 341, 343, 375, 322
323, 382, 323, 354, 372
324, 148, 175, 114, 115
*ELEMENT, TYPE=S3R, ELSET=SHELL_TRIS
325, 30, 149, 31
326, 149, 30, 2
327, 48, 147, 49
328, 147, 48, 47
329, 148, 11, 10
330, 11, 148, 12
331, 150, 14, 13
332, 14, 150, 15
*NSET, NSET=ALL_NODES, GENERATE
1, 385, 1
*ELSET, ELSET=SHELL_QUADS, GENERATE
1, 324, 1
*ELSET, ELSET=SHELL_TRIS, GENERATE
325, 332, 1
*ELSET, ELSET=EALL, GENERATE
1, 332, 1
