*Heading
** 100x100 mm plate with 12 mm dia central hole
** Avg element length 3.0 mm, refined to 1.0 mm at hole edge
** Mesh: quad (S4R) + tri (S3R) shell elements, linear order
** Generated with Gmsh; FE model only (nodes + elements)
*NODE
1, 6.000000, 0.000000, 0.000000
2, -50.000000, -50.000000, 0.000000
3, 50.000000, -50.000000, 0.000000
4, -50.000000, 50.000000, 0.000000
5, 50.000000, 50.000000, 0.000000
6, 5.918168, 0.987568, 0.000000
7, 5.674903, 1.948197, 0.000000
8, 5.276843, 2.855684, 0.000000
9, 4.734843, 3.685276, 0.000000
10, 4.063689, 4.414343, 0.000000
11, 3.281689, 5.022999, 0.000000
12, 2.410173, 5.494640, 0.000000
13, 1.472913, 5.816402, 0.000000
14, 0.495476, 5.979507, 0.000000
15, -0.495476, 5.979507, 0.000000
16, -1.472913, 5.816402, 0.000000
17, -2.410173, 5.494640, 0.000000
18, -3.281689, 5.022999, 0.000000
19, -4.063689, 4.414343, 0.000000
20, -4.734843, 3.685276, 0.000000
21, -5.276843, 2.855684, 0.000000
22, -5.674903, 1.948197, 0.000000
23, -5.918168, 0.987568, 0.000000
24, -6.000000, -0.000000, 0.000000
25, -5.918168, -0.987568, 0.000000
26, -5.674903, -1.948197, 0.000000
27, -5.276843, -2.855684, 0.000000
28, -4.734843, -3.685276, 0.000000
29, -4.063689, -4.414343, 0.000000
30, -3.281689, -5.022999, 0.000000
31, -2.410173, -5.494640, 0.000000
32, -1.472913, -5.816402, 0.000000
33, -0.495476, -5.979507, 0.000000
34, 0.495476, -5.979507, 0.000000
35, 1.472913, -5.816402, 0.000000
36, 2.410173, -5.494640, 0.000000
37, 3.281689, -5.022999, 0.000000
38, 4.063689, -4.414343, 0.000000
39, 4.734843, -3.685276, 0.000000
40, 5.276843, -2.855684, 0.000000
41, 5.674903, -1.948197, 0.000000
42, 5.918168, -0.987568, 0.000000
43, -47.058824, -50.000000, 0.000000
44, -44.117647, -50.000000, 0.000000
45, -41.176471, -50.000000, 0.000000
46, -38.235294, -50.000000, 0.000000
47, -35.294118, -50.000000, 0.000000
48, -32.352941, -50.000000, 0.000000
49, -29.411765, -50.000000, 0.000000
50, -26.470588, -50.000000, 0.000000
51, -23.529412, -50.000000, 0.000000
52, -20.588235, -50.000000, 0.000000
53, -17.647059, -50.000000, 0.000000
54, -14.705882, -50.000000, 0.000000
55, -11.764706, -50.000000, 0.000000
56, -8.823529, -50.000000, 0.000000
57, -5.882353, -50.000000, 0.000000
58, -2.941176, -50.000000, 0.000000
59, 0.000000, -50.000000, 0.000000
60, 2.941176, -50.000000, 0.000000
61, 5.882353, -50.000000, 0.000000
62, 8.823529, -50.000000, 0.000000
63, 11.764706, -50.000000, 0.000000
64, 14.705882, -50.000000, 0.000000
65, 17.647059, -50.000000, 0.000000
66, 20.588235, -50.000000, 0.000000
67, 23.529412, -50.000000, 0.000000
68, 26.470588, -50.000000, 0.000000
69, 29.411765, -50.000000, 0.000000
70, 32.352941, -50.000000, 0.000000
71, 35.294118, -50.000000, 0.000000
72, 38.235294, -50.000000, 0.000000
73, 41.176471, -50.000000, 0.000000
74, 44.117647, -50.000000, 0.000000
75, 47.058824, -50.000000, 0.000000
76, -50.000000, 47.058824, 0.000000
77, -50.000000, 44.117647, 0.000000
78, -50.000000, 41.176471, 0.000000
79, -50.000000, 38.235294, 0.000000
80, -50.000000, 35.294118, 0.000000
81, -50.000000, 32.352941, 0.000000
82, -50.000000, 29.411765, 0.000000
83, -50.000000, 26.470588, 0.000000
84, -50.000000, 23.529412, 0.000000
85, -50.000000, 20.588235, 0.000000
86, -50.000000, 17.647059, 0.000000
87, -50.000000, 14.705882, 0.000000
88, -50.000000, 11.764706, 0.000000
89, -50.000000, 8.823529, 0.000000
90, -50.000000, 5.882353, 0.000000
91, -50.000000, 2.941176, 0.000000
92, -50.000000, -0.000000, 0.000000
93, -50.000000, -2.941176, 0.000000
94, -50.000000, -5.882353, 0.000000
95, -50.000000, -8.823529, 0.000000
96, -50.000000, -11.764706, 0.000000
97, -50.000000, -14.705882, 0.000000
98, -50.000000, -17.647059, 0.000000
99, -50.000000, -20.588235, 0.000000
100, -50.000000, -23.529412, 0.000000
101, -50.000000, -26.470588, 0.000000
102, -50.000000, -29.411765, 0.000000
103, -50.000000, -32.352941, 0.000000
104, -50.000000, -35.294118, 0.000000
105, -50.000000, -38.235294, 0.000000
106, -50.000000, -41.176471, 0.000000
107, -50.000000, -44.117647, 0.000000
108, -50.000000, -47.058824, 0.000000
109, 50.000000, -47.058824, 0.000000
110, 50.000000, -44.117647, 0.000000
111, 50.000000, -41.176471, 0.000000
112, 50.000000, -38.235294, 0.000000
113, 50.000000, -35.294118, 0.000000
114, 50.000000, -32.352941, 0.000000
115, 50.000000, -29.411765, 0.000000
116, 50.000000, -26.470588, 0.000000
117, 50.000000, -23.529412, 0.000000
118, 50.000000, -20.588235, 0.000000
119, 50.000000, -17.647059, 0.000000
120, 50.000000, -14.705882, 0.000000
121, 50.000000, -11.764706, 0.000000
122, 50.000000, -8.823529, 0.000000
123, 50.000000, -5.882353, 0.000000
124, 50.000000, -2.941176, 0.000000
125, 50.000000, 0.000000, 0.000000
126, 50.000000, 2.941176, 0.000000
127, 50.000000, 5.882353, 0.000000
128, 50.000000, 8.823529, 0.000000
129, 50.000000, 11.764706, 0.000000
130, 50.000000, 14.705882, 0.000000
131, 50.000000, 17.647059, 0.000000
132, 50.000000, 20.588235, 0.000000
133, 50.000000, 23.529412, 0.000000
134, 50.000000, 26.470588, 0.000000
135, 50.000000, 29.411765, 0.000000
136, 50.000000, 32.352941, 0.000000
137, 50.000000, 35.294118, 0.000000
138, 50.000000, 38.235294, 0.000000
139, 50.000000, 41.176471, 0.000000
140, 50.000000, 44.117647, 0.000000
141, 50.000000, 47.058824, 0.000000
142, 47.058824, 50.000000, 0.000000
143, 44.117647, 50.000000, 0.000000
144, 41.176471, 50.000000, 0.000000
145, 38.235294, 50.000000, 0.000000
146, 35.294118, 50.000000, 0.000000
147, 32.352941, 50.000000, 0.000000
148, 29.411765, 50.000000, 0.000000
149, 26.470588, 50.000000, 0.000000
150, 23.529412, 50.000000, 0.000000
151, 20.588235, 50.000000, 0.000000
152, 17.647059, 50.000000, 0.000000
153, 14.705882, 50.000000, 0.000000
154, 11.764706, 50.000000, 0.000000
155, 8.823529, 50.000000, 0.000000
156, 5.882353, 50.000000, 0.000000
157, 2.941176, 50.000000, 0.000000
158, -0.000000, 50.000000, 0.000000
159, -2.941176, 50.000000, 0.000000
160, -5.882353, 50.000000, 0.000000
161, -8.823529, 50.000000, 0.000000
162, -11.764706, 50.000000, 0.000000
163, -14.705882, 50.000000, 0.000000
164, -17.647059, 50.000000, 0.000000
165, -20.588235, 50.000000, 0.000000
166, -23.529412, 50.000000, 0.000000
167, -26.470588, 50.000000, 0.000000
168, -29.411765, 50.000000, 0.000000
169, -32.352941, 50.000000, 0.000000
170, -35.294118, 50.000000, 0.000000
171, -38.235294, 50.000000, 0.000000
172, -41.176471, 50.000000, 0.000000
173, -44.117647, 50.000000, 0.000000
174, -47.058824, 50.000000, 0.000000
175, -4.790886, -4.854170, 0.000000
176, 5.216143, 4.466817, 0.000000
177, 5.196761, -4.780696, 0.000000
178, -5.177472, 4.852488, 0.000000
179, -2.255675, 6.676333, 0.000000
180, 2.289718, -6.629372, 0.000000
181, -2.252719, -6.610109, 0.000000
182, 2.037153, 6.424091, 0.000000
183, -6.445703, -1.929540, 0.000000
184, 6.522736, 1.634176, 0.000000
185, 6.679168, -1.644504, 0.000000
186, -6.762047, 1.692326, 0.000000
187, 22.045034, -47.071091, 0.000000
188, -22.558438, 47.774610, 0.000000
189, -22.249473, -46.877071, 0.000000
190, 22.284093, 47.125651, 0.000000
191, -47.474663, -20.146393, 0.000000
192, 47.027984, 19.358319, 0.000000
193, 47.098089, -18.817735, 0.000000
194, -48.090320, 18.385672, 0.000000
195, -10.264810, 47.574053, 0.000000
196, 9.619039, -47.907927, 0.000000
197, -10.346316, -46.503092, 0.000000
198, 10.614039, 47.298651, 0.000000
199, -47.237770, -6.556946, 0.000000
200, 47.962807, 6.628702, 0.000000
201, 47.026195, -7.885267, 0.000000
202, -47.415355, 6.638746, 0.000000
203, -47.065625, -31.760635, 0.000000
204, 47.810016, 31.069432, 0.000000
205, -47.016929, 30.738562, 0.000000
206, 47.365377, -30.538872, 0.000000
207, -1.349565, -47.237248, 0.000000
208, 1.321013, 47.302109, 0.000000
209, 30.268486, -47.095217, 0.000000
210, -31.272834, 46.933166, 0.000000
211, -29.885257, -47.268273, 0.000000
212, 29.855775, 47.549378, 0.000000
213, 0.010388, 6.891435, 0.000000
214, 0.123855, -6.804521, 0.000000
215, -47.784745, -39.552048, 0.000000
216, 39.661486, -47.217433, 0.000000
217, -40.158994, 47.059126, 0.000000
218, 47.009935, 39.923014, 0.000000
219, -40.228566, -47.272676, 0.000000
220, -47.014723, 39.837360, 0.000000
221, 47.591981, -38.945439, 0.000000
222, 40.054489, 47.259670, 0.000000
223, -47.004398, 13.375282, 0.000000
224, 47.485266, -14.060656, 0.000000
225, -47.161558, 0.692019, 0.000000
226, 47.426108, -0.806460, 0.000000
227, -16.442675, -46.904776, 0.000000
228, 16.516220, 46.903066, 0.000000
229, -47.467445, 25.683426, 0.000000
230, 47.295336, -25.562566, 0.000000
231, 4.155238, -47.053248, 0.000000
232, -47.497620, -13.172823, 0.000000
233, -47.178554, -24.888888, 0.000000
234, 46.775133, 12.290331, 0.000000
235, 47.476637, 25.476740, 0.000000
236, -5.398274, 47.313181, 0.000000
237, 15.920666, -47.362995, 0.000000
238, -16.709797, 47.297321, 0.000000
239, -47.468883, -45.643513, 0.000000
240, 45.503533, -47.224669, 0.000000
241, -44.842234, 47.071631, 0.000000
242, 47.209268, 45.494170, 0.000000
243, -5.937043, 3.842789, 0.000000
244, -6.039524, 4.858139, 0.000000
245, -5.149807, 5.844938, 0.000000
246, -6.241732, 5.958877, 0.000000
247, -6.887178, 4.801313, 0.000000
248, -7.420201, 5.648019, 0.000000
249, -8.165649, 5.012284, 0.000000
250, -8.386937, 6.119627, 0.000000
251, -8.913310, 5.469965, 0.000000
252, -8.940212, 6.599401, 0.000000
253, -8.459704, 7.252910, 0.000000
254, -9.325291, 7.378862, 0.000000
255, -9.072021, 8.277599, 0.000000
256, -9.844066, 8.126803, 0.000000
257, -9.584500, 6.064001, 0.000000
258, -9.145058, 9.189862, 0.000000
259, -10.106116, 9.037015, 0.000000
260, -9.163931, 10.251374, 0.000000
261, -10.501015, 10.369655, 0.000000
262, -9.416210, 11.662828, 0.000000
263, -11.681356, 11.443139, 0.000000
264, -12.501460, 10.314585, 0.000000
265, -13.105634, 12.162222, 0.000000
266, -10.642490, 12.676456, 0.000000
267, -13.829236, 10.811966, 0.000000
268, -14.853836, 12.724504, 0.000000
269, -15.565980, 10.965817, 0.000000
270, -16.818563, 13.491931, 0.000000
271, -18.187739, 11.060676, 0.000000
272, -18.689246, 14.874741, 0.000000
273, -16.923277, 16.397001, 0.000000
274, -8.274334, 12.935155, 0.000000
275, -9.528318, 14.024861, 0.000000
276, -6.902361, 14.221326, 0.000000
277, -8.500201, 15.863437, 0.000000
278, -5.752076, 15.709338, 0.000000
279, -6.799655, 17.275618, 0.000000
280, -4.340656, 16.663975, 0.000000
281, -5.386438, 18.759587, 0.000000
282, -2.689559, 18.529302, 0.000000
283, -3.805381, 20.345987, 0.000000
284, -1.247738, 19.710364, 0.000000
285, -1.871133, 21.995010, 0.000000
286, 0.329688, 22.117607, 0.000000
287, -5.043942, 22.421671, 0.000000
288, -20.610644, 17.078420, 0.000000
289, -20.492100, 12.816277, 0.000000
290, -20.504988, 9.088513, 0.000000
291, -0.388147, 24.263494, 0.000000
292, 2.527316, 22.754461, 0.000000
293, -22.466358, 10.686421, 0.000000
294, -22.256503, 6.991465, 0.000000
295, 2.318487, 20.050715, 0.000000
296, 4.632012, 21.934403, 0.000000
297, 4.867583, 19.202287, 0.000000
298, 6.556234, 21.420484, 0.000000
299, 7.304981, 18.198103, 0.000000
300, 8.997665, 19.985414, 0.000000
301, 10.222555, 17.271951, 0.000000
302, 11.716693, 20.146198, 0.000000
303, 12.766194, 17.536995, 0.000000
304, 14.150161, 19.729457, 0.000000
305, 15.034835, 16.114929, 0.000000
306, 17.399074, 18.528538, 0.000000
307, 18.059572, 15.411033, 0.000000
308, 20.854031, 17.153816, 0.000000
309, 20.436872, 14.068838, 0.000000
310, 19.785564, 21.140198, 0.000000
311, 11.643549, 22.334949, 0.000000
312, 22.238874, 19.745462, 0.000000
313, 21.899692, 22.592958, 0.000000
314, -17.594535, 18.604941, 0.000000
315, -21.372054, 20.115343, 0.000000
316, -18.499679, 21.451889, 0.000000
317, -23.191044, 22.768036, 0.000000
318, 4.651494, 24.109795, 0.000000
319, -24.989716, 8.247454, 0.000000
320, -23.418252, 4.497634, 0.000000
321, -26.342154, 10.919875, 0.000000
322, 18.189687, 12.195088, 0.000000
323, 21.503822, 10.557881, 0.000000
324, 18.898424, 9.614625, 0.000000
325, 22.325641, 8.167710, 0.000000
326, 20.284118, 6.834149, 0.000000
327, 22.698189, 5.965691, 0.000000
328, 20.351993, 4.217575, 0.000000
329, 22.453933, 4.018055, 0.000000
330, 20.168086, 2.044461, 0.000000
331, 22.636988, 1.315492, 0.000000
332, 21.267585, -1.595950, 0.000000
333, 24.676801, -1.682001, 0.000000
334, 21.687448, -4.473012, 0.000000
335, 24.659799, -5.216079, 0.000000
336, 23.510132, -7.632715, 0.000000
337, 25.874754, -8.148257, 0.000000
338, 23.185776, -10.486536, 0.000000
339, 26.078421, -10.737270, 0.000000
340, 23.840085, -13.825562, 0.000000
341, 20.401672, -11.678654, 0.000000
342, 21.262838, -14.611454, 0.000000
343, 24.198123, -16.568798, 0.000000
344, 21.947474, -17.519787, 0.000000
345, 18.924959, -15.550307, 0.000000
346, 19.069239, -18.952094, 0.000000
347, 16.466104, -17.062569, 0.000000
348, 22.831534, -20.271411, 0.000000
349, 16.655499, -21.563438, 0.000000
350, 14.587771, -19.559584, 0.000000
351, 14.653804, -23.467597, 0.000000
352, 12.908278, -22.014726, 0.000000
353, 24.492871, 8.255070, 0.000000
354, 24.863491, 20.332269, 0.000000
355, 24.287892, 23.022976, 0.000000
356, -19.565841, 24.573294, 0.000000
357, -23.530646, 25.105824, 0.000000
358, 13.199154, -26.158611, 0.000000
359, 10.519898, -24.158675, 0.000000
360, 15.941646, -25.811793, 0.000000
361, -5.607437, 6.563052, 0.000000
362, -26.314086, 22.834536, 0.000000
363, -26.113518, 25.621275, 0.000000
364, 27.208724, 0.348619, 0.000000
365, 9.269473, -21.399749, 0.000000
366, 7.036327, -22.381167, 0.000000
367, 7.022795, -25.194148, 0.000000
368, 4.188545, -23.597010, 0.000000
369, 4.267191, -21.045483, 0.000000
370, 1.395381, -22.863626, 0.000000
371, 2.259577, -20.862715, 0.000000
372, -0.583613, -21.873470, 0.000000
373, -0.200650, -25.041157, 0.000000
374, -2.976509, -23.442466, 0.000000
375, -3.401458, -21.307660, 0.000000
376, -6.010088, -23.100294, 0.000000
377, -5.666762, -20.268403, 0.000000
378, -8.278449, -22.042628, 0.000000
379, -7.974655, -19.064935, 0.000000
380, -10.151211, -20.112964, 0.000000
381, -10.598319, -17.557611, 0.000000
382, -13.111057, -19.632128, 0.000000
383, -12.928028, -17.288379, 0.000000
384, -16.031888, -19.645500, 0.000000
385, -15.082833, -22.108283, 0.000000
386, -18.241598, -21.523520, 0.000000
387, -18.749837, -17.564539, 0.000000
388, -20.180381, -19.631560, 0.000000
389, -20.841735, -22.339822, 0.000000
390, -23.282008, -21.155236, 0.000000
391, -22.985933, -18.274483, 0.000000
392, -21.969183, -24.674000, 0.000000
393, -7.446408, -25.095397, 0.000000
394, -24.658681, -23.554560, 0.000000
395, -24.693998, -26.686267, 0.000000
396, -22.081688, -26.924962, 0.000000
397, -26.601903, 5.133754, 0.000000
398, -25.751711, 1.946067, 0.000000
399, -22.816220, 1.813162, 0.000000
400, 26.888467, 23.140794, 0.000000
401, 26.701013, 25.651302, 0.000000
402, 23.768178, 26.186970, 0.000000
403, -21.731081, 26.652410, 0.000000
404, -27.988327, 2.465704, 0.000000
405, -27.259797, -26.547671, 0.000000
406, -28.754671, 23.621836, 0.000000
407, -29.306408, 27.694595, 0.000000
408, -26.958670, -28.530536, 0.000000
409, 19.222722, -2.591280, 0.000000
410, -26.528377, -0.213070, 0.000000
411, -2.657228, 16.130002, 0.000000
412, 17.217551, 8.064231, 0.000000
413, 28.336399, -8.361060, 0.000000
414, -10.599397, -15.643303, 0.000000
415, 10.774822, 15.288260, 0.000000
416, 29.034261, 25.663148, 0.000000
417, 29.407120, 23.149937, 0.000000
418, 29.040828, 28.426601, 0.000000
419, -9.514230, 4.736342, 0.000000
420, -10.427025, 5.345722, 0.000000
421, -10.098600, 3.832050, 0.000000
422, -10.955757, 4.438581, 0.000000
423, -11.015411, 3.229434, 0.000000
424, -11.625532, 3.790629, 0.000000
425, -11.520104, 2.524738, 0.000000
426, -28.846200, -0.099357, 0.000000
427, -5.866728, -18.268024, 0.000000
428, 5.148336, 16.839729, 0.000000
429, -29.019197, -2.430800, 0.000000
430, -29.457845, -26.933538, 0.000000
431, -30.396626, -24.397498, 0.000000
432, -28.510412, -29.641742, 0.000000
433, -30.783635, 2.992266, 0.000000
434, -12.519362, 3.180836, 0.000000
435, -11.845977, 1.646986, 0.000000
436, -30.813125, 24.705988, 0.000000
437, -33.000545, 27.802105, 0.000000
438, -30.058939, 30.654420, 0.000000
439, -32.464293, 30.267217, 0.000000
440, -17.338948, 26.869237, 0.000000
441, -18.914840, 29.008784, 0.000000
442, -15.635142, 28.803938, 0.000000
443, -10.869251, 1.358363, 0.000000
444, -11.894875, 0.667605, 0.000000
445, -12.899654, 0.772022, 0.000000
446, -12.892127, -0.331015, 0.000000
447, 31.421839, 27.541779, 0.000000
448, 31.213603, 30.148801, 0.000000
449, -31.723323, -3.076067, 0.000000
450, -30.281144, -5.418618, 0.000000
451, -12.991632, 4.308716, 0.000000
452, -28.235774, -4.642356, 0.000000
453, -14.035552, 0.415697, 0.000000
454, -13.501524, -1.096382, 0.000000
455, -12.523958, -1.434879, 0.000000
456, -12.969802, -2.343063, 0.000000
457, -13.994744, -2.030267, 0.000000
458, -14.125021, -3.145789, 0.000000
459, -13.128348, -3.302725, 0.000000
460, -13.407846, -4.355518, 0.000000
461, -12.447157, -4.559059, 0.000000
462, -14.509979, -4.149389, 0.000000
463, -12.821911, -5.737975, 0.000000
464, -11.546710, -5.210669, 0.000000
465, -12.206673, -6.815941, 0.000000
466, -11.060692, -6.332347, 0.000000
467, -16.996745, 31.806617, 0.000000
468, -14.240914, 30.815958, 0.000000
469, -11.277235, -7.654401, 0.000000
470, -10.204141, -7.604003, 0.000000
471, -13.042350, -7.583984, 0.000000
472, -10.438110, -5.747393, 0.000000
473, -19.608553, 32.963370, 0.000000
474, -31.375406, 32.561351, 0.000000
475, -33.490926, 34.022503, 0.000000
476, -31.431104, -28.710432, 0.000000
477, -31.741038, -31.888717, 0.000000
478, -28.488830, -33.063068, 0.000000
479, 3.393537, -18.852814, 0.000000
480, 18.340383, 2.429748, 0.000000
481, -9.170460, 17.769110, 0.000000
482, -6.950602, 12.606537, 0.000000
483, 33.520291, 29.375727, 0.000000
484, 33.093470, 31.543078, 0.000000
485, 29.492368, 32.306217, 0.000000
486, -33.256894, -5.747795, 0.000000
487, -31.922645, -8.197883, 0.000000
488, -8.148538, 9.027629, 0.000000
489, -11.881049, -3.473193, 0.000000
490, -15.178651, 34.297965, 0.000000
491, -12.727207, 33.072209, 0.000000
492, -34.214351, 24.822835, 0.000000
493, -32.601257, 22.524807, 0.000000
494, 28.528241, -10.951820, 0.000000
495, 31.587702, -8.702410, 0.000000
496, 31.495796, -12.396973, 0.000000
497, 34.912712, -9.977779, 0.000000
498, 32.794665, -6.129682, 0.000000
499, 34.536554, -12.507303, 0.000000
500, -32.199793, -34.563634, 0.000000
501, -34.801845, -33.990613, 0.000000
502, 14.144274, -17.253553, 0.000000
503, 32.551813, -15.821699, 0.000000
504, 35.565712, -15.262595, 0.000000
505, 33.288726, -18.728151, 0.000000
506, 36.171248, -18.460390, 0.000000
507, 33.717890, -20.827105, 0.000000
508, -29.601106, -36.434497, 0.000000
509, 13.858675, -29.292526, 0.000000
510, 16.438893, -28.659220, 0.000000
511, 14.499702, -31.876498, 0.000000
512, 16.789716, -31.766925, 0.000000
513, 19.045073, -28.336620, 0.000000
514, 19.314289, -31.676989, 0.000000
515, 21.728056, -31.529431, 0.000000
516, 22.173241, -34.499108, 0.000000
517, 24.574139, -32.813508, 0.000000
518, 14.486848, -34.248208, 0.000000
519, 25.569445, -36.270697, 0.000000
520, 27.716715, -32.970850, 0.000000
521, 12.077397, -33.572921, 0.000000
522, -34.714436, -2.186297, 0.000000
523, 33.302744, 27.412007, 0.000000
524, 25.435711, 18.318709, 0.000000
525, -10.898354, -8.847991, 0.000000
526, -9.745471, -8.634532, 0.000000
527, -9.167015, -8.015641, 0.000000
528, -8.899977, -8.897934, 0.000000
529, -8.483219, -8.294483, 0.000000
530, -7.881773, -9.070909, 0.000000
531, -7.462517, -8.257498, 0.000000
532, -6.770684, -8.783790, 0.000000
533, -7.151865, -9.531831, 0.000000
534, -6.278379, -9.915565, 0.000000
535, -6.580251, -10.805305, 0.000000
536, -5.847228, -10.875228, 0.000000
537, -5.476686, -10.283695, 0.000000
538, -4.758240, -10.723889, 0.000000
539, -4.297331, -9.992479, 0.000000
540, -4.061886, -11.117919, 0.000000
541, 1.536968, -18.301032, 0.000000
542, 3.291517, -17.140978, 0.000000
543, 1.862896, -16.558918, 0.000000
544, 2.804020, -15.213765, 0.000000
545, 4.552331, -15.921568, 0.000000
546, 4.451443, -14.095868, 0.000000
547, 3.122499, -13.695631, 0.000000
548, 3.771426, -12.603542, 0.000000
549, 4.824652, -12.946698, 0.000000
550, 5.154100, -11.845819, 0.000000
551, 6.251995, -12.135027, 0.000000
552, 5.495807, -10.697822, 0.000000
553, 6.455033, -11.228595, 0.000000
554, 6.444013, -10.342582, 0.000000
555, 7.234641, -10.254132, 0.000000
556, 7.018851, -9.381859, 0.000000
557, 8.006033, -9.594120, 0.000000
558, 7.733190, -8.601678, 0.000000
559, 9.003671, -9.186948, 0.000000
560, 8.526120, -8.106750, 0.000000
561, 9.519490, -7.857412, 0.000000
562, 9.262218, -7.187281, 0.000000
563, 10.275177, -7.492802, 0.000000
564, 9.740535, -6.647255, 0.000000
565, 10.874446, -6.630474, 0.000000
566, 10.550335, -5.471842, 0.000000
567, 11.697358, -7.562033, 0.000000
568, 2.307348, -12.746404, 0.000000
569, 1.531877, -13.176979, 0.000000
570, 11.777660, -5.603892, 0.000000
571, 11.400736, -4.465799, 0.000000
572, 1.417236, -12.198613, 0.000000
573, 9.336363, -9.941846, 0.000000
574, 1.992723, -11.434138, 0.000000
575, 9.543447, -5.591814, 0.000000
576, 6.236004, -9.496312, 0.000000
577, 0.401869, -12.443062, 0.000000
578, 0.579726, -11.328448, 0.000000
579, -3.471795, -10.393081, 0.000000
580, 7.114726, -12.270964, 0.000000
581, 12.789154, -4.898275, 0.000000
582, 12.237971, -4.081216, 0.000000
583, 11.396808, -3.477530, 0.000000
584, 12.023337, -2.847452, 0.000000
585, 11.235645, -2.613351, 0.000000
586, 11.384103, -1.944438, 0.000000
587, 12.191405, -2.076178, 0.000000
588, 12.243447, -1.176478, 0.000000
589, 11.204471, -1.063437, 0.000000
590, 12.249161, -0.331380, 0.000000
591, 13.984384, -4.083189, 0.000000
592, 11.413063, -0.118128, 0.000000
593, 11.704611, 0.712265, 0.000000
594, 13.932715, -5.899038, 0.000000
595, 13.251007, -1.329205, 0.000000
596, -4.463751, -11.946316, 0.000000
597, -6.647844, -11.706609, 0.000000
598, 10.930727, 1.028616, 0.000000
599, 11.301607, 1.740385, 0.000000
600, 12.054611, 1.437227, 0.000000
601, 11.991894, 2.399688, 0.000000
602, 10.883224, 3.093564, 0.000000
603, 11.524160, 3.652637, 0.000000
604, 10.422916, 4.105849, 0.000000
605, 11.314210, 4.515747, 0.000000
606, 10.109478, 4.937909, 0.000000
607, 10.763233, 5.453624, 0.000000
608, 9.480789, 5.701449, 0.000000
609, 10.292849, 6.288871, 0.000000
610, 9.242548, 6.432569, 0.000000
611, 9.683908, 7.102788, 0.000000
612, 8.781712, 7.252646, 0.000000
613, 9.214574, 7.957454, 0.000000
614, 8.406886, 8.281719, 0.000000
615, 10.573064, 7.746722, 0.000000
616, 12.303937, 3.480112, 0.000000
617, 8.680341, 9.156061, 0.000000
618, 7.686262, 9.278333, 0.000000
619, 7.467885, 8.478908, 0.000000
620, 7.001236, 9.354774, 0.000000
621, 6.442371, 8.794536, 0.000000
622, 6.109309, 9.482258, 0.000000
623, 6.702241, 9.964467, 0.000000
624, 5.889857, 10.419727, 0.000000
625, 8.720053, 10.142768, 0.000000
626, 5.125068, 9.602659, 0.000000
627, 4.853893, 10.504055, 0.000000
628, -4.980160, -9.496650, 0.000000
629, 28.295973, -35.983469, 0.000000
630, 30.224128, -33.116582, 0.000000
631, 4.618821, -27.418042, 0.000000
632, -7.628723, -7.415808, 0.000000
633, 31.342752, -35.822594, 0.000000
634, 32.769086, -33.713465, 0.000000
635, -34.801026, -8.286490, 0.000000
636, -33.991134, -10.264328, 0.000000
637, 6.304298, 11.273214, 0.000000
638, -12.668207, -14.788027, 0.000000
639, 35.883750, -21.536526, 0.000000
640, 3.820498, 9.796493, 0.000000
641, 3.443887, 10.806102, 0.000000
642, 3.057664, 9.814083, 0.000000
643, 2.594064, 10.490056, 0.000000
644, 3.149505, 11.734285, 0.000000
645, 2.244224, 11.580456, 0.000000
646, 1.709504, 10.423250, 0.000000
647, 1.224674, 11.315231, 0.000000
648, 0.675241, 10.549355, 0.000000
649, 1.921291, 12.615464, 0.000000
650, 0.256499, 11.280368, 0.000000
651, -0.384404, 10.794068, 0.000000
652, -10.916807, 0.501500, 0.000000
653, 9.369393, 4.742744, 0.000000
654, 19.546218, -35.439387, 0.000000
655, 35.277234, 31.570927, 0.000000
656, 35.102586, 33.811989, 0.000000
657, -31.552015, 36.357170, 0.000000
658, -34.433103, 36.708138, 0.000000
659, 11.885048, 5.353549, 0.000000
660, -15.055496, 25.793978, 0.000000
661, -10.800056, 6.308321, 0.000000
662, 8.480431, -6.992886, 0.000000
663, -2.133857, -27.274206, 0.000000
664, -34.797485, -36.640113, 0.000000
665, 12.043534, -36.576890, 0.000000
666, 8.661728, -34.852719, 0.000000
667, -34.735574, 31.021912, 0.000000
668, -36.724818, 22.748370, 0.000000
669, -35.223947, 20.410382, 0.000000
670, -0.872937, 11.450976, 0.000000
671, -1.242143, 10.971707, 0.000000
672, -0.198849, 12.147928, 0.000000
673, -31.535590, -10.749958, 0.000000
674, -32.596922, -13.442309, 0.000000
675, -35.722078, -11.793812, 0.000000
676, -37.060522, -36.908338, 0.000000
677, -37.961619, -33.852310, 0.000000
678, -9.551187, -9.839527, 0.000000
679, -1.449033, 11.910144, 0.000000
680, -1.845191, 11.070755, 0.000000
681, 10.389791, 0.113861, 0.000000
682, 8.601421, 6.531597, 0.000000
683, -13.527725, 37.126389, 0.000000
684, -10.108015, 35.574489, 0.000000
685, -16.391856, 38.009977, 0.000000
686, -9.626210, 31.829834, 0.000000
687, -6.727993, 34.532166, 0.000000
688, 34.307836, -37.251316, 0.000000
689, 35.863333, -34.846317, 0.000000
690, -10.060303, 1.088262, 0.000000
691, -10.028290, 0.322135, 0.000000
692, 4.489404, 8.930391, 0.000000
693, -32.179875, 18.622952, 0.000000
694, -34.779338, 16.129139, 0.000000
695, -1.683865, 10.153533, 0.000000
696, -2.558254, 10.255135, 0.000000
697, 35.781478, -6.934396, 0.000000
698, 35.349682, -3.683735, 0.000000
699, 27.431456, -29.943683, 0.000000
700, -0.444143, -12.350111, 0.000000
701, 35.425158, -31.865695, 0.000000
702, 37.463814, 33.692439, 0.000000
703, 37.451951, 31.401554, 0.000000
704, 37.484975, 35.998150, 0.000000
705, -37.080714, 17.545480, 0.000000
706, -36.595823, 14.009217, 0.000000
707, -14.326106, 1.569996, 0.000000
708, -15.247729, 0.197826, 0.000000
709, -15.736028, 1.428834, 0.000000
710, -15.813478, 9.029260, 0.000000
711, 34.375629, 36.452923, 0.000000
712, -35.392379, -15.111473, 0.000000
713, -2.370533, 12.114560, 0.000000
714, -38.272664, -14.836494, 0.000000
715, -36.026973, -17.874905, 0.000000
716, -6.804302, -7.525848, 0.000000
717, 26.175753, -38.953883, 0.000000
718, -6.575539, 31.919720, 0.000000
719, -4.246421, 34.393524, 0.000000
720, -4.354375, 36.997619, 0.000000
721, -1.869176, 37.306159, 0.000000
722, -1.856130, 34.291657, 0.000000
723, 0.811678, 36.589541, 0.000000
724, -9.085988, 3.542668, 0.000000
725, 9.761408, 3.047712, 0.000000
726, 9.849750, 10.219696, 0.000000
727, 9.935697, -37.338554, 0.000000
728, 6.445176, -36.914790, 0.000000
729, 1.143063, 9.910559, 0.000000
730, -0.738180, -13.244004, 0.000000
731, 38.469990, -16.518235, 0.000000
732, -10.965034, 14.915140, 0.000000
733, -10.981087, 8.527902, 0.000000
734, -38.788967, -12.421724, 0.000000
735, -8.504170, 29.083379, 0.000000
736, 12.479855, -38.940656, 0.000000
737, -23.593498, 16.438889, 0.000000
738, 34.324071, -24.537475, 0.000000
739, 38.105517, -24.349608, 0.000000
740, 32.244807, -22.062689, 0.000000
741, -29.386250, 35.037235, 0.000000
742, -29.720710, 38.231684, 0.000000
743, -26.768333, 36.947771, 0.000000
744, -25.822629, -35.168844, 0.000000
745, -26.309760, -38.216649, 0.000000
746, -23.131051, -36.174534, 0.000000
747, -23.189595, -38.845993, 0.000000
748, -20.037678, -36.647558, 0.000000
749, 36.306369, -38.931205, 0.000000
750, 38.834254, -37.302353, 0.000000
751, -6.743509, -6.588020, 0.000000
752, -36.548622, -39.617717, 0.000000
753, 38.799814, -6.238528, 0.000000
754, 38.677153, -3.056956, 0.000000
755, 34.774162, -1.197589, 0.000000
756, 37.082450, -0.499447, 0.000000
757, 35.032957, 1.368122, 0.000000
758, 37.199572, 3.038718, 0.000000
759, 34.897861, 4.004650, 0.000000
760, 35.774215, 6.161019, 0.000000
761, 33.340054, 7.739610, 0.000000
762, 35.519624, 9.827009, 0.000000
763, 31.884828, 10.297468, 0.000000
764, 34.117841, 12.308493, 0.000000
765, 37.559434, 10.924498, 0.000000
766, 37.292767, 13.619678, 0.000000
767, 38.419445, -8.784680, 0.000000
768, 39.374977, 1.220289, 0.000000
769, 33.583149, 15.174131, 0.000000
770, 35.949015, 16.074891, 0.000000
771, -27.695620, 39.770501, 0.000000
772, -24.707808, 38.447932, 0.000000
773, -40.193141, -35.233398, 0.000000
774, -0.437555, -11.409618, 0.000000
775, 0.349572, -10.351734, 0.000000
776, 18.208935, 23.439481, 0.000000
777, -0.703153, -10.258831, 0.000000
778, 0.939784, 33.316211, 0.000000
779, 3.547441, 34.060760, 0.000000
780, 3.221933, 36.833812, 0.000000
781, 6.066396, 36.829549, 0.000000
782, 6.519284, 33.379422, 0.000000
783, 9.527319, 36.791054, 0.000000
784, 9.753453, 33.457690, 0.000000
785, 12.645781, 35.557947, 0.000000
786, 12.658599, 33.076604, 0.000000
787, 15.240520, 34.955683, 0.000000
788, 14.470763, 37.799521, 0.000000
789, 17.680932, 37.234425, 0.000000
790, 15.307984, 32.685393, 0.000000
791, -31.096925, -15.717749, 0.000000
792, -7.914068, -11.959336, 0.000000
793, -6.941214, -12.725852, 0.000000
794, -14.249586, 39.985806, 0.000000
795, -17.213709, 40.116882, 0.000000
796, -16.672300, -0.207246, 0.000000
797, -20.411253, -39.697841, 0.000000
798, -17.331247, -38.357323, 0.000000
799, -17.673304, -34.855504, 0.000000
800, -15.877572, -36.557187, 0.000000
801, -15.821469, -33.086510, 0.000000
802, -13.026331, -35.191416, 0.000000
803, -12.426179, -37.925405, 0.000000
804, -9.797216, -35.743749, 0.000000
805, -10.263046, -37.932472, 0.000000
806, -7.612953, -37.274410, 0.000000
807, -7.694139, -39.789423, 0.000000
808, -5.535606, -38.691674, 0.000000
809, -13.690668, -31.160932, 0.000000
810, 38.989720, 15.285926, 0.000000
811, 38.387675, 17.635719, 0.000000
812, -40.544210, -31.845711, 0.000000
813, 40.132119, -22.087509, 0.000000
814, 40.778120, -25.419528, 0.000000
815, -25.456620, -41.212662, 0.000000
816, -1.752906, -12.885952, 0.000000
817, -1.045276, -14.187576, 0.000000
818, -0.098049, -18.120177, 0.000000
819, -2.341792, 9.277162, 0.000000
820, -3.351739, 9.698245, 0.000000
821, -3.899446, 10.427680, 0.000000
822, -4.515318, 9.787944, 0.000000
823, -1.649317, 9.407620, 0.000000
824, 5.794095, 39.633647, 0.000000
825, 39.140968, -40.469382, 0.000000
826, 0.154714, -9.538097, 0.000000
827, -0.820865, -9.101371, 0.000000
828, -16.902749, 2.264812, 0.000000
829, -4.034244, 8.716432, 0.000000
830, 10.250725, 30.601916, 0.000000
831, -32.688534, 14.111628, 0.000000
832, -35.097334, 12.317601, 0.000000
833, -39.117115, 12.398412, 0.000000
834, -37.064756, 9.886342, 0.000000
835, 40.030772, 35.663677, 0.000000
836, 40.396120, 38.169026, 0.000000
837, 7.530697, -39.463052, 0.000000
838, 5.034798, -38.570723, 0.000000
839, 4.444061, -35.829364, 0.000000
840, 4.470669, -10.476616, 0.000000
841, -9.304326, 1.001357, 0.000000
842, -9.186942, 0.211592, 0.000000
843, -10.036627, -0.467599, 0.000000
844, -2.801164, 39.583809, 0.000000
845, -4.822517, 40.038034, 0.000000
846, -8.189110, -33.775080, 0.000000
847, -34.395234, -39.193711, 0.000000
848, -38.838879, -17.714581, 0.000000
849, -38.207173, -20.018094, 0.000000
850, -30.826613, 40.444766, 0.000000
851, -5.187052, 9.136432, 0.000000
852, -5.493412, 9.800508, 0.000000
853, 15.665878, -5.877992, 0.000000
854, -12.194674, -40.257012, 0.000000
855, 9.824451, 11.617461, 0.000000
856, 11.306483, 10.820068, 0.000000
857, 21.803500, -28.518590, 0.000000
858, 31.813108, -39.059855, 0.000000
859, -2.350959, -14.064114, 0.000000
860, -2.057354, -15.460998, 0.000000
861, -3.384822, -14.642409, 0.000000
862, -15.303849, 17.827264, 0.000000
863, 10.341206, -3.436462, 0.000000
864, 10.412961, -2.481695, 0.000000
865, 9.129547, -3.309334, 0.000000
866, 9.401376, -2.053326, 0.000000
867, -40.381049, 10.515438, 0.000000
868, -39.631456, 8.716097, 0.000000
869, 8.133597, -2.809195, 0.000000
870, -4.730249, -40.790782, 0.000000
871, -7.808905, -6.561584, 0.000000
872, -7.492494, -5.646150, 0.000000
873, -6.271842, 29.317127, 0.000000
874, -16.030388, 3.492992, 0.000000
875, -2.508348, -39.842399, 0.000000
876, -2.743390, -37.002162, 0.000000
877, -33.677746, 9.765832, 0.000000
878, -1.769436, 13.153159, 0.000000
879, -3.185552, 12.964216, 0.000000
880, 41.673776, -3.793991, 0.000000
881, 36.204554, 20.018754, 0.000000
882, 39.197021, 21.443177, 0.000000
883, -5.874609, -6.627324, 0.000000
884, -9.136848, -0.770177, 0.000000
885, -9.907446, -1.474269, 0.000000
886, -4.534228, 6.527362, 0.000000
887, -8.896057, -13.074729, 0.000000
888, -7.582714, -13.855977, 0.000000
889, 15.723829, 40.550871, 0.000000
890, 18.121827, 39.383514, 0.000000
891, 19.651666, 36.912406, 0.000000
892, 20.771980, 38.544436, 0.000000
893, 22.744589, 36.741356, 0.000000
894, 23.589029, 39.025879, 0.000000
895, 12.990145, 42.297296, 0.000000
896, 37.333161, -42.329297, 0.000000
897, 42.121516, 20.106308, 0.000000
898, 41.218412, 24.071033, 0.000000
899, -41.651927, 13.094972, 0.000000
900, -36.086926, -42.278936, 0.000000
901, -38.802097, -39.927130, 0.000000
902, -2.895911, -11.020795, 0.000000
903, 14.285340, -7.151399, 0.000000
904, 15.414225, -7.516989, 0.000000
905, 14.622956, -9.340381, 0.000000
906, 17.423329, -6.087678, 0.000000
907, -17.733498, 3.962448, 0.000000
908, -25.139152, 41.656102, 0.000000
909, 7.296006, 7.680731, 0.000000
910, 32.203668, 4.432770, 0.000000
911, -41.549309, -18.987492, 0.000000
912, -39.967577, -21.689006, 0.000000
913, -37.318050, -23.161354, 0.000000
914, 8.370521, -4.046326, 0.000000
915, 7.500046, -3.556249, 0.000000
916, 8.016550, -4.676753, 0.000000
917, 32.315014, -25.791360, 0.000000
918, 16.648989, -9.889741, 0.000000
919, 14.689094, -11.307235, 0.000000
920, 23.462921, 41.969863, 0.000000
921, 26.971129, 41.513448, 0.000000
922, -8.151372, -5.291887, 0.000000
923, -7.707768, -4.570280, 0.000000
924, -8.598043, -4.539089, 0.000000
925, -8.268878, -3.565688, 0.000000
926, -9.153859, -3.818472, 0.000000
927, -7.520222, -3.878025, 0.000000
928, -6.112059, 9.032980, 0.000000
929, -6.304153, 9.964634, 0.000000
930, 23.757952, 13.575695, 0.000000
931, -16.404210, 5.797664, 0.000000
932, -8.438981, 0.238256, 0.000000
933, -39.489177, -25.299409, 0.000000
934, 1.049696, -10.048538, 0.000000
935, 0.828878, -9.290306, 0.000000
936, 1.716239, -9.345266, 0.000000
937, 29.852200, -16.405279, 0.000000
938, 30.040019, -24.156527, 0.000000
939, -42.755217, -16.852297, 0.000000
940, -8.513135, -1.809531, 0.000000
941, -22.924554, 40.195913, 0.000000
942, -25.549999, 34.408241, 0.000000
943, -21.620099, 38.303020, 0.000000
944, -7.536558, 4.283143, 0.000000
945, -27.665418, 20.490974, 0.000000
946, 28.468785, -20.505994, 0.000000
947, 27.161964, -24.386601, 0.000000
948, -36.999906, 26.174997, 0.000000
949, -38.613642, 24.158795, 0.000000
950, -38.966324, 27.778336, 0.000000
951, -1.504167, 31.027934, 0.000000
952, 2.721807, 40.331236, 0.000000
953, -17.727286, -40.730888, 0.000000
954, 20.661690, 35.009341, 0.000000
955, 23.477727, 33.081534, 0.000000
956, -16.333585, -29.587088, 0.000000
957, -14.403106, -27.801147, 0.000000
958, -11.524349, -29.150918, 0.000000
959, 32.417396, -0.931948, 0.000000
960, 9.625561, 0.918213, 0.000000
961, 8.926526, 0.284483, 0.000000
962, 8.141042, 1.129486, 0.000000
963, -8.404060, 26.256777, 0.000000
964, 41.989251, -37.913814, 0.000000
965, 41.462628, -35.112688, 0.000000
966, 7.664031, 0.240612, 0.000000
967, 25.600566, 43.639707, 0.000000
968, 41.972420, -40.130491, 0.000000
969, -1.919091, 8.646767, 0.000000
970, -5.737138, 10.700746, 0.000000
971, -5.822715, -7.540233, 0.000000
972, -5.116447, -6.958734, 0.000000
973, 1.553391, -8.368325, 0.000000
974, 2.640000, -8.989764, 0.000000
975, 12.629994, -10.149415, 0.000000
976, 13.355464, -11.658340, 0.000000
977, 15.052556, -12.889627, 0.000000
978, 5.140992, -41.681898, 0.000000
979, 6.304260, 7.584170, 0.000000
980, 6.694138, 6.634442, 0.000000
981, 5.453322, 6.916473, 0.000000
982, -1.859181, -42.110084, 0.000000
983, -42.328333, -24.957302, 0.000000
984, 43.984483, -35.667076, 0.000000
985, -6.891130, -41.716331, 0.000000
986, 8.264501, -0.387321, 0.000000
987, -41.775733, -33.589316, 0.000000
988, -42.278923, -35.663956, 0.000000
989, 0.472480, -28.428848, 0.000000
990, -15.833665, 42.024318, 0.000000
991, -12.218177, 41.376732, 0.000000
992, -18.513426, 42.104300, 0.000000
993, 7.219278, -4.414604, 0.000000
994, 7.353496, -5.242408, 0.000000
995, -41.414151, 25.845001, 0.000000
996, -41.281726, 22.178966, 0.000000
997, -42.482956, 28.614717, 0.000000
998, -40.325489, 30.058909, 0.000000
999, -1.265179, 8.187090, 0.000000
1000, 28.991906, 43.245843, 0.000000
1001, 2.381713, 30.049478, 0.000000
1002, 42.815849, 37.358304, 0.000000
1003, 41.411241, 40.646004, 0.000000
1004, 38.546164, 41.749766, 0.000000
1005, 42.690898, 35.101452, 0.000000
1006, -3.338761, -15.633417, 0.000000
1007, -4.621450, -15.643022, 0.000000
1008, 41.899656, -23.667321, 0.000000
1009, 41.621937, -20.740516, 0.000000
1010, 42.540726, -26.648040, 0.000000
1011, 40.598210, -27.835412, 0.000000
1012, -4.478624, -7.602295, 0.000000
1013, -3.823784, -6.844069, 0.000000
1014, -3.552931, -7.732771, 0.000000
1015, -10.813096, -1.189174, 0.000000
1016, -1.479780, -30.595483, 0.000000
1017, -4.146040, -29.467590, 0.000000
1018, 2.883126, -9.768741, 0.000000
1019, 3.470502, -8.711780, 0.000000
1020, 3.309505, -7.896074, 0.000000
1021, 4.292486, -8.418770, 0.000000
1022, 4.075120, -7.503272, 0.000000
1023, 5.071287, -8.165555, 0.000000
1024, 5.140106, -7.128028, 0.000000
1025, 5.904285, -7.475509, 0.000000
1026, 5.895919, -6.398012, 0.000000
1027, -42.861602, -29.972597, 0.000000
1028, -18.000674, 1.018289, 0.000000
1029, -17.794425, -1.666699, 0.000000
1030, -19.387757, -0.860839, 0.000000
1031, -18.915682, -3.067116, 0.000000
1032, -21.277561, -2.322916, 0.000000
1033, -20.294354, -4.400916, 0.000000
1034, -17.749190, -4.243568, 0.000000
1035, -18.745312, -6.277134, 0.000000
1036, -16.855664, -6.607201, 0.000000
1037, -18.200878, -8.777456, 0.000000
1038, -20.642909, -8.506449, 0.000000
1039, -19.921886, -11.479124, 0.000000
1040, -23.265881, -9.422807, 0.000000
1041, -17.691761, -10.887074, 0.000000
1042, -22.372279, -12.111977, 0.000000
1043, -25.028367, -12.563992, 0.000000
1044, 11.309506, -11.262029, 0.000000
1045, 12.077434, -12.424758, 0.000000
1046, 10.133795, -11.950171, 0.000000
1047, 10.778837, -13.495722, 0.000000
1048, -9.740567, 1.794958, 0.000000
1049, -8.942455, 1.968481, 0.000000
1050, -3.885689, 12.073991, 0.000000
1051, -4.640410, 12.825153, 0.000000
1052, 5.326147, 42.970683, 0.000000
1053, 8.086925, 42.157113, 0.000000
1054, 7.743421, -43.076193, 0.000000
1055, -11.364154, -12.924328, 0.000000
1056, -13.375599, -12.578374, 0.000000
1057, -14.860535, -14.524635, 0.000000
1058, -33.654514, -41.619388, 0.000000
1059, -5.796343, -12.889896, 0.000000
1060, -3.884637, 42.022589, 0.000000
1061, -6.776914, 41.947404, 0.000000
1062, 1.130623, -31.693662, 0.000000
1063, -44.547184, -35.197160, 0.000000
1064, 7.999091, -31.488001, 0.000000
1065, 16.948394, 42.567793, 0.000000
1066, 7.365574, 10.901034, 0.000000
1067, 6.722701, 12.218426, 0.000000
1068, 5.618076, 12.662816, 0.000000
1069, 6.846632, 13.474813, 0.000000
1070, 5.160022, 13.830948, 0.000000
1071, 8.080680, 13.287748, 0.000000
1072, 29.581812, 40.031432, 0.000000
1073, 31.228647, 42.069049, 0.000000
1074, -10.281405, -2.304696, 0.000000
1075, -11.496286, -25.903118, 0.000000
1076, -20.648087, -42.347365, 0.000000
1077, 10.786569, 12.663019, 0.000000
1078, 12.108353, 12.250720, 0.000000
1079, 12.978426, 10.236380, 0.000000
1080, 13.746261, 11.902519, 0.000000
1081, 14.636294, 9.968000, 0.000000
1082, 13.538018, 8.610098, 0.000000
1083, -16.648489, -26.536440, 0.000000
1084, -24.012670, -33.121336, 0.000000
1085, -11.283893, 26.848269, 0.000000
1086, -9.234983, 23.665133, 0.000000
1087, -31.181089, -40.715025, 0.000000
1088, -0.759556, 9.282401, 0.000000
1089, -25.860686, -9.864174, 0.000000
1090, 7.182740, 14.835424, 0.000000
1091, -11.818375, -11.191591, 0.000000
1092, -13.348009, -10.922043, 0.000000
1093, -35.554621, -44.703916, 0.000000
1094, -42.031441, 7.986803, 0.000000
1095, -41.274487, 5.477606, 0.000000
1096, -38.422588, 6.111968, 0.000000
1097, -41.185847, 2.988133, 0.000000
1098, -6.973414, 10.738226, 0.000000
1099, 10.049978, -1.230268, 0.000000
1100, 43.072205, 22.520206, 0.000000
1101, 42.824865, 25.958776, 0.000000
1102, -23.090087, -3.684128, 0.000000
1103, 0.129360, 8.370236, 0.000000
1104, -38.128015, 2.813769, 0.000000
1105, -39.348870, 0.269237, 0.000000
1106, -41.822705, 0.917313, 0.000000
1107, -41.493564, -1.610334, 0.000000
1108, -44.489700, -1.433726, 0.000000
1109, -18.163768, 5.909079, 0.000000
1110, 3.675643, -6.555861, 0.000000
1111, 3.215571, -40.092477, 0.000000
1112, -5.172109, 12.045577, 0.000000
1113, -1.562682, -9.564360, 0.000000
1114, -1.982875, -8.710370, 0.000000
1115, -1.135542, -8.313293, 0.000000
1116, 39.478695, 26.177008, 0.000000
1117, 41.575845, 27.979054, 0.000000
1118, -38.032180, -30.065891, 0.000000
1119, -8.849976, -6.046623, 0.000000
1120, 6.846739, 45.858313, 0.000000
1121, -35.785996, 4.898012, 0.000000
1122, -35.627474, -24.710716, 0.000000
1123, 6.004418, 6.100192, 0.000000
1124, 6.889534, 5.816528, 0.000000
1125, 4.654663, 6.580571, 0.000000
1126, 4.239202, 7.514201, 0.000000
1127, 14.282241, -2.644675, 0.000000
1128, 15.559178, -2.621013, 0.000000
1129, 15.289063, -1.418116, 0.000000
1130, -43.672451, -4.186452, 0.000000
1131, -40.607695, -5.454614, 0.000000
1132, -41.767880, -7.749812, 0.000000
1133, -6.644666, 3.393990, 0.000000
1134, -11.180266, -2.010676, 0.000000
1135, 34.963244, 22.437497, 0.000000
1136, 0.781898, -37.409697, 0.000000
1137, -44.537249, 22.735945, 0.000000
1138, -42.537408, 18.842363, 0.000000
1139, 6.583238, -7.086244, 0.000000
1140, 6.856064, -7.891163, 0.000000
1141, -4.734072, 7.741826, 0.000000
1142, -3.506481, 7.743087, 0.000000
1143, -2.049970, -7.983113, 0.000000
1144, 6.565549, -3.475397, 0.000000
1145, 42.935807, -32.861977, 0.000000
1146, 0.213808, 28.263541, 0.000000
1147, -5.417850, 26.398440, 0.000000
1148, -19.643528, 3.886930, 0.000000
1149, 3.792889, 6.306581, 0.000000
1150, 3.521354, 7.162587, 0.000000
1151, 8.243950, -1.850802, 0.000000
1152, -0.050008, -14.584401, 0.000000
1153, -13.687559, 14.324407, 0.000000
1154, -7.854315, -2.892885, 0.000000
1155, 20.453102, 31.660180, 0.000000
1156, -13.688369, 2.959965, 0.000000
1157, -14.176669, 3.993484, 0.000000
1158, -13.143028, 5.232711, 0.000000
1159, 32.547290, 21.181913, 0.000000
1160, -7.066820, -3.144687, 0.000000
1161, 7.334930, -0.258166, 0.000000
1162, 12.504740, 13.675356, 0.000000
1163, -6.756117, -3.957754, 0.000000
1164, -9.808857, -4.251844, 0.000000
1165, 3.612875, -43.697658, 0.000000
1166, -27.695329, -12.782787, 0.000000
1167, -27.363590, -15.785382, 0.000000
1168, 18.051280, 6.331114, 0.000000
1169, 15.951803, 6.477103, 0.000000
1170, 16.139572, 4.205517, 0.000000
1171, 14.505071, 4.656318, 0.000000
1172, 14.710735, 3.298930, 0.000000
1173, 14.280924, 5.928083, 0.000000
1174, 8.166757, -5.761142, 0.000000
1175, 9.086151, -13.737934, 0.000000
1176, 8.828875, -15.219620, 0.000000
1177, 7.155909, -14.878227, 0.000000
1178, 8.435531, -16.916154, 0.000000
1179, 10.100804, -17.297705, 0.000000
1180, -39.870470, -8.309369, 0.000000
1181, -42.299887, -10.355979, 0.000000
1182, 14.136854, 13.576836, 0.000000
1183, 0.743653, -8.483076, 0.000000
1184, -8.673543, -17.431184, 0.000000
1185, -4.628727, -6.264108, 0.000000
1186, -13.743688, 44.028751, 0.000000
1187, -2.489317, 13.729717, 0.000000
1188, -1.056175, 13.921396, 0.000000
1189, -2.805848, -8.485981, 0.000000
1190, 1.074770, 6.732562, 0.000000
1191, 1.789055, 7.249295, 0.000000
1192, -6.769806, 0.534451, 0.000000
1193, 6.255830, 2.419336, 0.000000
1194, 7.181017, 2.342337, 0.000000
1195, 7.089900, 3.263760, 0.000000
1196, 7.968833, 3.108831, 0.000000
1197, 7.847707, 4.019486, 0.000000
1198, 6.993435, 4.163148, 0.000000
1199, 7.748609, 4.902674, 0.000000
1200, -6.737996, -0.599439, 0.000000
1201, -2.823561, 6.170127, 0.000000
1202, 1.076045, -6.659402, 0.000000
1203, -1.532884, -6.588600, 0.000000
1204, -1.102426, 6.834834, 0.000000
1205, -2.455385, -12.543082, 0.000000
1206, 43.941303, -21.738676, 0.000000
1207, 44.353915, -18.254210, 0.000000
1208, 19.445238, 0.222658, 0.000000
1209, 17.080750, 0.468859, 0.000000
1210, 6.367950, -5.289524, 0.000000
1211, -5.545398, 13.507142, 0.000000
1212, -18.165382, -43.308329, 0.000000
1213, -43.643919, 30.871298, 0.000000
1214, -41.655287, 32.588985, 0.000000
1215, 0.975953, 43.355729, 0.000000
1216, 44.712058, 27.170613, 0.000000
1217, -3.475633, -18.634833, 0.000000
1218, 44.547241, 19.267360, 0.000000
1219, 27.295893, 45.198704, 0.000000
1220, 4.544152, -9.434845, 0.000000
1221, -45.128098, 32.479798, 0.000000
1222, -43.565433, 35.313862, 0.000000
1223, -39.468034, 34.575744, 0.000000
1224, -40.752545, 37.201104, 0.000000
1225, -46.279984, 35.742864, 0.000000
1226, -3.492004, -32.845258, 0.000000
1227, -16.585781, 7.470617, 0.000000
1228, -14.976236, 6.438208, 0.000000
1229, 3.339848, 17.839269, 0.000000
1230, 3.506388, 16.239251, 0.000000
1231, 1.845587, 16.609566, 0.000000
1232, 2.753997, 14.846036, 0.000000
1233, 1.318102, 15.136944, 0.000000
1234, 0.378689, 16.479528, 0.000000
1235, 6.134997, -20.468873, 0.000000
1236, 14.931756, 7.904902, 0.000000
1237, 5.417318, 3.666568, 0.000000
1238, 11.387305, -9.262954, 0.000000
1239, 40.240261, 44.595022, 0.000000
1240, 42.618177, 42.901280, 0.000000
1241, 42.429836, 45.759390, 0.000000
1242, -33.950412, -22.861018, 0.000000
1243, 4.030156, -11.467390, 0.000000
1244, -23.271843, 44.085480, 0.000000
1245, -26.732137, 44.509687, 0.000000
1246, 16.883706, -2.071649, 0.000000
1247, 17.603531, -3.924541, 0.000000
1248, 19.607174, -4.470495, 0.000000
1249, 19.323470, -6.399685, 0.000000
1250, 45.104165, 37.088779, 0.000000
1251, 45.032647, 35.022318, 0.000000
1252, 42.656239, 32.137904, 0.000000
1253, 37.146041, 45.099027, 0.000000
1254, 35.688508, 42.983000, 0.000000
1255, 35.185387, 46.258520, 0.000000
1256, 4.213116, 12.925323, 0.000000
1257, 1.127263, 7.767272, 0.000000
1258, 2.036360, 8.376442, 0.000000
1259, -30.055572, -44.004657, 0.000000
1260, -1.954991, -20.148373, 0.000000
1261, 4.357103, -5.223054, 0.000000
1262, 45.525208, -16.259103, 0.000000
1263, 42.389716, -15.884795, 0.000000
1264, -8.103371, 11.495391, 0.000000
1265, -7.324903, 1.155912, 0.000000
1266, -7.376607, 2.491689, 0.000000
1267, -40.563729, -28.056056, 0.000000
1268, -9.205148, -11.077921, 0.000000
1269, -1.658788, 17.265154, 0.000000
1270, 6.117949, 5.135582, 0.000000
1271, -4.115993, 15.294478, 0.000000
1272, -44.907218, -9.454387, 0.000000
1273, -43.886052, -12.807932, 0.000000
1274, -44.857756, -38.212821, 0.000000
1275, -1.058348, 15.734944, 0.000000
1276, 16.819817, 10.623472, 0.000000
1277, 5.773787, -14.447867, 0.000000
1278, 15.771144, -14.541476, 0.000000
1279, 10.435146, -4.478324, 0.000000
1280, 11.488843, -19.646589, 0.000000
1281, -46.807894, -4.112510, 0.000000
1282, -23.951780, -1.502728, 0.000000
1283, -45.357960, 28.539585, 0.000000
1284, -10.340220, -3.593244, 0.000000
1285, 1.664923, -14.283458, 0.000000
1286, -35.210616, 1.429429, 0.000000
1287, 6.929974, 0.635843, 0.000000
1288, -44.466717, -20.320839, 0.000000
1289, -44.835706, -17.443397, 0.000000
1290, -45.647478, -22.403985, 0.000000
1291, -3.320892, -6.111664, 0.000000
1292, 24.271072, 30.435809, 0.000000
1293, 19.698287, 27.459292, 0.000000
1294, 26.009424, 32.168216, 0.000000
1295, 22.273769, 44.713902, 0.000000
1296, 5.696769, -18.180654, 0.000000
1297, 5.450403, -9.658940, 0.000000
1298, -9.910086, -14.121046, 0.000000
1299, 17.797953, -12.992970, 0.000000
1300, -1.811888, -16.811263, 0.000000
1301, -11.043324, -4.209199, 0.000000
1302, -16.774262, -2.783221, 0.000000
1303, -15.756825, -1.664511, 0.000000
1304, 42.444314, -29.656463, 0.000000
1305, 12.173096, -14.531461, 0.000000
1306, 8.477668, 16.654678, 0.000000
1307, -6.351248, -16.044409, 0.000000
1308, 3.637565, 14.101656, 0.000000
1309, 11.479955, 9.307516, 0.000000
1310, 3.461256, -10.451986, 0.000000
1311, -1.761277, 7.368528, 0.000000
1312, 29.984133, -27.747468, 0.000000
1313, 32.567786, -28.721310, 0.000000
1314, 2.002788, 18.110553, 0.000000
1315, -7.032545, 8.790905, 0.000000
1316, -6.436191, 7.982118, 0.000000
1317, -7.184882, -1.234875, 0.000000
1318, 41.095713, -31.344833, 0.000000
1319, 38.493240, -29.800684, 0.000000
1320, -9.071342, 2.754757, 0.000000
1321, 8.768521, -12.240893, 0.000000
1322, -5.849855, -8.947407, 0.000000
1323, 8.130532, 7.540123, 0.000000
1324, 8.866950, -6.234562, 0.000000
1325, -7.950466, 10.222736, 0.000000
1326, 9.601212, 44.492421, 0.000000
1327, 5.632208, -3.747079, 0.000000
1328, 26.120716, -21.671826, 0.000000
1329, 23.988971, -22.730117, 0.000000
1330, 20.656383, -21.698671, 0.000000
1331, 25.008944, -25.886434, 0.000000
1332, -13.684169, 9.156873, 0.000000
1333, 13.064460, 5.522778, 0.000000
1334, 12.496126, 6.727372, 0.000000
1335, -16.306985, -5.068421, 0.000000
1336, -15.336932, -7.251736, 0.000000
1337, -16.599568, -8.312043, 0.000000
1338, -14.190280, -8.437218, 0.000000
1339, -15.384189, -10.238465, 0.000000
1340, 9.329135, -4.512552, 0.000000
1341, -11.802362, -0.306934, 0.000000
1342, -24.432620, -15.198524, 0.000000
1343, -21.250315, -15.235994, 0.000000
1344, -19.059626, -13.792613, 0.000000
1345, -1.330331, -11.896301, 0.000000
1346, 44.560947, -28.126918, 0.000000
1347, 13.462669, -7.888081, 0.000000
1348, 45.832547, -33.975833, 0.000000
1349, 47.066760, -36.526642, 0.000000
1350, 16.769429, 2.369846, 0.000000
1351, 14.997719, 1.463465, 0.000000
1352, 13.310804, 2.129241, 0.000000
1353, 13.810677, 0.591758, 0.000000
1354, 15.166718, -0.247319, 0.000000
1355, 1.616655, -7.361778, 0.000000
1356, -6.746640, 4.092395, 0.000000
1357, -4.443282, 5.205576, 0.000000
1358, -42.953376, -27.095440, 0.000000
1359, -10.675974, 2.089327, 0.000000
1360, 1.478995, -10.740103, 0.000000
1361, -3.339015, -13.004535, 0.000000
1362, 30.110303, -30.593091, 0.000000
1363, -15.691375, 20.699183, 0.000000
1364, -13.625351, 19.294069, 0.000000
1365, -12.873309, 17.747260, 0.000000
1366, -11.182623, 19.313807, 0.000000
1367, -11.999367, 21.427083, 0.000000
1368, -9.442362, 21.376581, 0.000000
1369, -8.251358, 8.060121, 0.000000
1370, -0.732439, -34.034834, 0.000000
1371, -23.953131, -7.005504, 0.000000
1372, 24.964053, -19.203953, 0.000000
1373, 26.975313, -17.174193, 0.000000
1374, 8.842059, 14.704600, 0.000000
1375, 8.545641, 5.700679, 0.000000
1376, 27.805403, -5.466625, 0.000000
1377, -12.296602, 24.331515, 0.000000
1378, 7.131686, 1.450025, 0.000000
1379, -10.063318, 2.736955, 0.000000
1380, -8.253100, 3.407522, 0.000000
1381, 2.912184, -7.193967, 0.000000
1382, 7.396181, -28.340262, 0.000000
1383, 5.134891, -30.640260, 0.000000
1384, 24.054338, 16.666028, 0.000000
1385, 26.564624, 15.311025, 0.000000
1386, 26.465636, 13.000045, 0.000000
1387, 27.689757, 17.561542, 0.000000
1388, 28.844983, 14.910324, 0.000000
1389, 30.630225, 17.836622, 0.000000
1390, 28.967826, 12.615923, 0.000000
1391, -10.134388, -6.702505, 0.000000
1392, 26.373492, 10.707572, 0.000000
1393, -42.692378, -22.605314, 0.000000
1394, -10.747256, -9.930873, 0.000000
1395, 30.258932, -5.621002, 0.000000
1396, 30.066511, -3.136356, 0.000000
1397, -29.504072, 5.664910, 0.000000
1398, -32.241750, 6.276711, 0.000000
1399, -31.336736, 8.562784, 0.000000
1400, 5.780951, -33.825595, 0.000000
1401, 10.338961, -27.593614, 0.000000
1402, -6.692737, 6.880837, 0.000000
1403, -24.823651, 19.071022, 0.000000
1404, -27.285856, 16.773173, 0.000000
1405, -25.747563, 14.750105, 0.000000
1406, -29.162087, 15.109537, 0.000000
1407, -28.206072, 12.804538, 0.000000
1408, -30.433820, 13.449483, 0.000000
1409, -29.095262, 18.223962, 0.000000
1410, -16.636909, -24.031529, 0.000000
1411, -16.452594, 23.741566, 0.000000
1412, -21.247344, 42.217006, 0.000000
1413, 27.375375, 20.459583, 0.000000
1414, -18.644655, 38.610257, 0.000000
1415, 7.696495, -6.390869, 0.000000
1416, -25.459197, -20.847561, 0.000000
1417, -27.684887, -23.727440, 0.000000
1418, -28.128179, -20.373578, 0.000000
1419, -31.582977, -21.122337, 0.000000
1420, -33.578419, -19.771165, 0.000000
1421, -23.962390, 28.274946, 0.000000
1422, 28.946086, -13.651339, 0.000000
1423, -26.150775, 30.134836, 0.000000
1424, -7.680704, 6.763574, 0.000000
1425, 37.618206, -10.897432, 0.000000
1426, 39.494434, -11.542361, 0.000000
1427, 40.993956, -9.843054, 0.000000
1428, -21.663198, 30.625058, 0.000000
1429, -21.764065, 34.522323, 0.000000
1430, 37.123924, -13.050697, 0.000000
1431, -23.799521, 32.388375, 0.000000
1432, -29.474258, -7.716819, 0.000000
1433, -19.443990, -24.794640, 0.000000
1434, 41.666420, -6.503943, 0.000000
1435, 43.917534, -4.808208, 0.000000
1436, 42.925437, -1.098595, 0.000000
1437, 44.195570, -8.520220, 0.000000
1438, 44.881677, -11.195249, 0.000000
1439, 31.180701, 25.579592, 0.000000
1440, -19.947747, 36.695896, 0.000000
1441, -20.003638, 39.954457, 0.000000
1442, -18.463145, 44.628961, 0.000000
1443, -36.174272, -4.471320, 0.000000
1444, -8.587068, 4.215625, 0.000000
1445, 32.653949, -3.539171, 0.000000
1446, 30.072013, -0.677829, 0.000000
1447, -18.794746, -27.426890, 0.000000
1448, -24.708484, -29.682031, 0.000000
1449, -37.415893, 36.668442, 0.000000
1450, -38.637144, 38.791928, 0.000000
1451, -41.713268, 39.832222, 0.000000
1452, -39.545792, 41.207757, 0.000000
1453, -36.537057, 41.595012, 0.000000
1454, -42.618774, 42.064926, 0.000000
1455, -37.601523, 44.670741, 0.000000
1456, -34.445685, 44.096891, 0.000000
1457, -35.509875, 45.937521, 0.000000
1458, -44.734087, 40.995548, 0.000000
1459, -45.487155, 43.103414, 0.000000
1460, -33.983976, 40.348670, 0.000000
1461, -32.360961, 42.876562, 0.000000
1462, -30.310152, 21.405729, 0.000000
1463, -13.710028, 27.677202, 0.000000
1464, -37.162326, -9.550024, 0.000000
1465, 35.339035, 29.342865, 0.000000
1466, -35.664709, 28.510062, 0.000000
1467, 30.890497, -19.452668, 0.000000
1468, -37.432534, 29.199454, 0.000000
1469, -17.774955, 35.459686, 0.000000
1470, -23.418476, 36.437556, 0.000000
1471, 32.040772, 33.986033, 0.000000
1472, 29.527524, 36.190598, 0.000000
1473, 38.550987, -20.251943, 0.000000
1474, -10.138276, 42.650219, 0.000000
1475, -8.771345, 40.373203, 0.000000
1476, -8.177655, 44.557608, 0.000000
1477, -39.453368, 18.566486, 0.000000
1478, -41.115383, 15.968528, 0.000000
1479, -45.098834, 16.890688, 0.000000
1480, -44.075902, 14.317942, 0.000000
1481, -42.215349, 10.660653, 0.000000
1482, 35.380743, -27.326213, 0.000000
1483, 38.503476, 5.562811, 0.000000
1484, 41.232505, 4.288480, 0.000000
1485, 41.037659, 7.202968, 0.000000
1486, 44.227116, 5.424535, 0.000000
1487, 43.184088, 8.024549, 0.000000
1488, 44.472114, 2.550557, 0.000000
1489, 40.238705, 9.233657, 0.000000
1490, 42.835562, 10.748468, 0.000000
1491, 45.097651, 10.542339, 0.000000
1492, 39.896113, 12.007233, 0.000000
1493, 40.944252, 14.648431, 0.000000
1494, 37.661253, 8.465176, 0.000000
1495, -26.463542, -31.459595, 0.000000
1496, -27.463637, -42.376580, 0.000000
1497, -27.312656, -45.096442, 0.000000
1498, -25.368672, -43.272481, 0.000000
1499, -25.341215, -45.137864, 0.000000
1500, -23.436445, -44.155220, 0.000000
1501, -10.968832, 39.018816, 0.000000
1502, 16.576563, -35.057591, 0.000000
1503, 17.496231, -38.017018, 0.000000
1504, 20.752038, -38.615058, 0.000000
1505, 18.550979, -40.259288, 0.000000
1506, 21.749066, -41.266062, 0.000000
1507, 19.536366, -42.525477, 0.000000
1508, 16.503610, -41.682155, 0.000000
1509, -28.805094, -39.832134, 0.000000
1510, -32.725229, 38.416742, 0.000000
1511, -11.624634, 29.334095, 0.000000
1512, -38.511028, 20.747323, 0.000000
1513, -40.999557, -15.248632, 0.000000
1514, 14.282555, -37.030783, 0.000000
1515, 15.451166, -39.516209, 0.000000
1516, 13.231320, -41.109910, 0.000000
1517, 14.246141, -43.749076, 0.000000
1518, 10.707033, -42.177462, 0.000000
1519, -34.689172, -31.046120, 0.000000
1520, 30.231367, 6.838626, 0.000000
1521, 27.556164, 5.419171, 0.000000
1522, 39.834163, 33.332290, 0.000000
1523, -3.628915, 28.765785, 0.000000
1524, -21.106111, -29.766355, 0.000000
1525, -41.913494, -37.997883, 0.000000
1526, -44.035581, -41.058788, 0.000000
1527, -46.483879, -42.287744, 0.000000
1528, -44.864689, -44.874073, 0.000000
1529, -42.712128, -43.123098, 0.000000
1530, 36.982697, 38.862799, 0.000000
1531, 44.155707, 39.458737, 0.000000
1532, -38.542213, 15.261353, 0.000000
1533, 23.083992, -37.217786, 0.000000
1534, -39.478140, -37.502581, 0.000000
1535, -28.812630, 42.428887, 0.000000
1536, -7.060906, 37.727301, 0.000000
1537, 12.996266, 30.376697, 0.000000
1538, 10.354281, 28.022281, 0.000000
1539, 13.530501, 27.114944, 0.000000
1540, 8.471536, 28.511362, 0.000000
1541, 9.878309, 25.573227, 0.000000
1542, 15.418993, 30.400339, 0.000000
1543, 16.190186, 28.139090, 0.000000
1544, 15.686848, 24.780933, 0.000000
1545, 16.618611, 21.593762, 0.000000
1546, -35.648181, 38.401006, 0.000000
1547, 10.429057, -39.706536, 0.000000
1548, 19.788301, 41.660084, 0.000000
1549, 19.707299, 44.668365, 0.000000
1550, -32.395922, -37.722604, 0.000000
1551, -23.193100, -41.574770, 0.000000
1552, 34.690502, -41.325627, 0.000000
1553, 35.615659, -44.499824, 0.000000
1554, 38.086356, -45.520323, 0.000000
1555, 35.424233, -46.708236, 0.000000
1556, 31.058714, -42.649118, 0.000000
1557, 28.197300, -41.340953, 0.000000
1558, 28.815069, -44.792751, 0.000000
1559, 26.864362, -43.467396, 0.000000
1560, 26.926483, -47.175137, 0.000000
1561, 25.267611, -45.323079, 0.000000
1562, -1.687146, 41.681834, 0.000000
1563, -2.433378, 44.629230, 0.000000
1564, 10.305328, 42.122292, 0.000000
1565, 11.969478, 44.377069, 0.000000
1566, 13.493576, 46.194617, 0.000000
1567, 15.030854, 43.953429, 0.000000
1568, 8.199327, 39.852415, 0.000000
1569, 0.108388, 39.230731, 0.000000
1570, -4.213655, 31.841037, 0.000000
1571, -38.905220, -42.988928, 0.000000
1572, -44.015412, 4.068604, 0.000000
1573, 11.292439, 39.682013, 0.000000
1574, -3.886203, -42.924855, 0.000000
1575, -6.250214, -44.440111, 0.000000
1576, -9.422144, -43.187050, 0.000000
1577, -13.122651, -45.400585, 0.000000
1578, -44.061149, 38.578229, 0.000000
1579, 17.675069, 32.562470, 0.000000
1580, -14.582900, -39.094342, 0.000000
1581, 25.056298, 35.578295, 0.000000
1582, -10.925949, -32.552052, 0.000000
1583, -8.855983, -30.417111, 0.000000
1584, -15.135475, -41.761604, 0.000000
1585, 37.285825, 24.220284, 0.000000
1586, -36.618059, 7.669315, 0.000000
1587, 17.689851, 34.872800, 0.000000
1588, 5.578195, -44.962137, 0.000000
1589, 2.061824, -45.898395, 0.000000
1590, 7.791817, 30.352603, 0.000000
1591, 38.625548, -32.793424, 0.000000
1592, 4.455313, 31.377921, 0.000000
1593, 28.628956, -38.836969, 0.000000
1594, 39.916916, -43.676283, 0.000000
1595, 43.105173, -42.768159, 0.000000
1596, -9.896035, -40.169774, 0.000000
1597, 5.822187, 29.413585, 0.000000
1598, 26.489544, -40.732292, 0.000000
1599, 25.160123, -41.925178, 0.000000
1600, 24.004016, -39.857507, 0.000000
1601, 41.498755, 17.336151, 0.000000
1602, 44.289145, 16.645020, 0.000000
1603, -37.573915, 31.857495, 0.000000
1604, -35.991122, 34.734994, 0.000000
1605, 5.265921, -8.911164, 0.000000
1606, 40.323281, -0.971349, 0.000000
1607, 42.351730, 1.699962, 0.000000
1608, -5.607276, 8.213122, 0.000000
1609, -8.553283, -2.757403, 0.000000
1610, -18.037752, -31.347727, 0.000000
1611, -20.467023, -33.112804, 0.000000
1612, -6.860826, -4.850984, 0.000000
1613, -27.807864, 32.455470, 0.000000
1614, -5.119969, 10.318748, 0.000000
1615, -9.458021, -5.121686, 0.000000
1616, 2.148905, 9.706916, 0.000000
1617, -5.591801, -5.730486, 0.000000
1618, 7.302266, -2.599664, 0.000000
1619, -2.966122, 8.894248, 0.000000
1620, 26.460764, -13.719987, 0.000000
1621, -6.631067, -5.768547, 0.000000
1622, 6.047921, -8.390396, 0.000000
1623, 10.285180, 1.926892, 0.000000
1624, 3.484873, 9.020500, 0.000000
1625, 7.650832, 6.764817, 0.000000
1626, -3.203701, 11.225497, 0.000000
1627, 18.590311, -24.554237, 0.000000
1628, -0.077781, -8.776374, 0.000000
1629, -28.552129, 8.592010, 0.000000
1630, 32.521873, 1.507643, 0.000000
1631, -29.997971, 10.660255, 0.000000
1632, -1.034401, 10.366281, 0.000000
1633, 29.722397, 2.393556, 0.000000
1634, 25.094643, 3.144519, 0.000000
1635, -31.667645, 11.773456, 0.000000
1636, 3.014463, 7.993642, 0.000000
1637, 27.594508, -27.246043, 0.000000
1638, 9.577325, 3.935448, 0.000000
1639, 0.064415, 9.998805, 0.000000
1640, -11.886483, -9.964730, 0.000000
1641, -13.810089, -24.859234, 0.000000
1642, -8.558509, 1.111669, 0.000000
1643, -8.358260, -7.384954, 0.000000
1644, 10.647665, -1.717638, 0.000000
1645, 20.911653, 24.915926, 0.000000
1646, -30.798238, 16.253885, 0.000000
1647, 0.582337, 9.345756, 0.000000
1648, 42.480238, -12.211531, 0.000000
1649, 8.978620, 1.908616, 0.000000
1650, 11.054085, -30.393053, 0.000000
1651, 42.559950, -47.776481, 0.000000
1652, 47.912843, 43.444498, 0.000000
1653, -42.338144, 47.206580, 0.000000
1654, -47.551099, 22.674309, 0.000000
1655, 47.538664, -21.993210, 0.000000
1656, -42.806949, -47.314150, 0.000000
1657, -4.503091, -47.593778, 0.000000
1658, -47.198654, 3.584026, 0.000000
1659, 47.452522, -41.827201, 0.000000
1660, 47.318864, -4.469435, 0.000000
1661, -47.921917, 9.371518, 0.000000
1662, 25.186068, 47.682956, 0.000000
1663, -19.910592, -47.915212, 0.000000
1664, 47.382160, 1.601318, 0.000000
1665, 46.879572, 4.092790, 0.000000
1666, -47.678812, -28.033376, 0.000000
1667, -47.000515, -34.660014, 0.000000
1668, -47.384044, -36.881495, 0.000000
1669, -28.172587, 46.820732, 0.000000
1670, -24.651765, 46.417334, 0.000000
1671, -35.792599, -47.467534, 0.000000
1672, 13.415257, -46.863560, 0.000000
1673, -2.418329, 47.454135, 0.000000
1674, -13.825368, 47.398180, 0.000000
1675, -32.733317, -47.264681, 0.000000
1676, 7.057051, -47.048345, 0.000000
1677, 18.365969, -47.943813, 0.000000
1678, 47.467350, 16.199073, 0.000000
1679, 47.997435, 23.008373, 0.000000
1680, 13.205948, -0.254558, 0.000000
1681, 5.583222, 8.756094, 0.000000
1682, 23.046280, -43.989494, 0.000000
1683, 5.344527, 11.576284, 0.000000
1684, 24.692366, -29.220637, 0.000000
1685, -12.600380, -22.394385, 0.000000
1686, 44.415347, -37.433821, 0.000000
1687, -9.362294, -27.137813, 0.000000
1688, -5.538381, -35.127998, 0.000000
1689, 3.598352, -32.745551, 0.000000
1690, 10.523468, -0.749208, 0.000000
1691, -3.600419, -9.363399, 0.000000
1692, 1.611740, 13.729680, 0.000000
1693, 0.486795, 13.508137, 0.000000
1694, 18.351028, -10.395467, 0.000000
1695, -0.409697, -44.371583, 0.000000
1696, -22.266945, 14.379229, 0.000000
1697, -33.046110, -25.625119, 0.000000
1698, -6.315053, -8.206176, 0.000000
1699, 9.508383, -0.514633, 0.000000
1700, -8.540386, -9.608656, 0.000000
1701, 12.497854, 0.424698, 0.000000
1702, 7.282627, 26.760851, 0.000000
1703, -10.082905, 6.816952, 0.000000
1704, -11.282694, 7.057155, 0.000000
1705, -12.236019, 6.335500, 0.000000
1706, -12.584978, 7.538666, 0.000000
1707, -5.509711, -11.610654, 0.000000
1708, -31.251904, -18.686628, 0.000000
1709, 4.106571, 5.428121, 0.000000
1710, -1.677937, -10.922106, 0.000000
1711, -11.424946, 5.652987, 0.000000
1712, -4.441240, -14.237573, 0.000000
1713, -6.095784, -14.235609, 0.000000
1714, -10.875094, -0.378925, 0.000000
1715, 5.147681, 8.045373, 0.000000
1716, 40.789611, -18.530877, 0.000000
1717, 46.904858, 27.947954, 0.000000
1718, 22.017826, -24.941797, 0.000000
1719, -17.517619, 9.253794, 0.000000
1720, 12.198548, 24.611630, 0.000000
1721, -6.506240, 24.095015, 0.000000
1722, 7.569420, -7.821463, 0.000000
1723, 0.879547, 12.431778, 0.000000
1724, 2.974708, 12.731989, 0.000000
1725, -6.226827, 11.398033, 0.000000
1726, -14.558548, 22.490964, 0.000000
1727, -3.445322, -11.798589, 0.000000
1728, 39.978213, -13.828819, 0.000000
1729, 29.991122, 20.600020, 0.000000
1730, -2.932639, -6.807247, 0.000000
1731, 37.788585, -27.145261, 0.000000
1732, 35.709212, -29.727273, 0.000000
1733, 47.692118, -10.758809, 0.000000
1734, -15.320874, -16.617319, 0.000000
1735, 31.266851, 12.720319, 0.000000
1736, -1.101981, 12.593126, 0.000000
1737, -5.224146, -8.193808, 0.000000
1738, 33.742720, 18.277180, 0.000000
1739, -44.743488, -24.093527, 0.000000
1740, 13.460377, 4.422693, 0.000000
1741, -47.549428, 33.439091, 0.000000
1742, 2.928708, -29.531396, 0.000000
1743, 12.401176, 4.544985, 0.000000
1744, -38.882804, -3.164496, 0.000000
1745, 3.809068, 8.407925, 0.000000
1746, 19.368464, 47.630964, 0.000000
1747, 2.322280, -26.179028, 0.000000
1748, 11.510783, 6.100069, 0.000000
1749, 32.724860, -45.145362, 0.000000
1750, 45.367637, 0.644221, 0.000000
1751, 7.982372, 2.242687, 0.000000
1752, 27.658815, -2.838765, 0.000000
1753, -4.846195, -26.114997, 0.000000
1754, 32.793649, -31.293503, 0.000000
1755, -9.970205, -12.160553, 0.000000
1756, -0.572796, 7.551206, 0.000000
1757, 7.009144, -8.667961, 0.000000
1758, 47.394075, 37.543915, 0.000000
1759, 37.406601, 47.640310, 0.000000
1760, -5.852945, -4.716757, 0.000000
1761, 4.711254, 47.333985, 0.000000
1762, -2.720819, 7.139240, 0.000000
1763, 8.845394, -1.057156, 0.000000
1764, -15.012657, -2.619364, 0.000000
1765, -0.337762, -7.902668, 0.000000
1766, 12.798781, -3.321942, 0.000000
1767, 2.805206, 9.124789, 0.000000
1768, -44.708857, 25.525543, 0.000000
1769, -2.725985, -9.269356, 0.000000
1770, -45.030255, -47.334955, 0.000000
1771, 47.170398, -45.506431, 0.000000
1772, -24.242946, 12.638889, 0.000000
1773, -16.406037, 44.792480, 0.000000
1774, -47.260014, 44.672154, 0.000000
1775, 44.520996, 47.636301, 0.000000
1776, -11.959287, 4.790377, 0.000000
1777, -10.523597, 7.639400, 0.000000
1778, 5.519406, 15.420622, 0.000000
1779, 11.045477, 6.860831, 0.000000
1780, 11.890395, 7.927081, 0.000000
1781, -44.014835, -32.687298, 0.000000
1782, 2.217133, -10.204744, 0.000000
1783, 2.878691, -6.056396, 0.000000
1784, -46.843689, -1.712036, 0.000000
1785, 43.661136, 13.747404, 0.000000
1786, 24.025711, 10.812857, 0.000000
1787, 6.443413, -2.506482, 0.000000
1788, 8.192818, 48.009069, 0.000000
1789, 6.922037, 23.785736, 0.000000
1790, -4.401043, -8.679259, 0.000000
1791, -11.663495, -1.170344, 0.000000
1792, 8.174582, -19.054594, 0.000000
1793, -47.574340, -9.424258, 0.000000
1794, 7.750581, 10.023702, 0.000000
1795, -30.066817, 44.899611, 0.000000
1796, 1.654168, -42.376891, 0.000000
1797, 33.869292, 40.620405, 0.000000
1798, -47.515088, 15.865700, 0.000000
1799, 6.761530, -16.403118, 0.000000
1800, 44.342229, -25.171272, 0.000000
1801, 9.035298, 12.655489, 0.000000
1802, 12.670785, -6.759235, 0.000000
1803, 4.191731, 11.545912, 0.000000
1804, -47.655749, 41.918586, 0.000000
1805, -25.905169, -18.562644, 0.000000
1806, 4.081434, 27.018268, 0.000000
1807, 29.953499, 45.293054, 0.000000
1808, -26.312043, -2.709103, 0.000000
1809, 9.776619, -11.003911, 0.000000
1810, -44.686707, 7.360130, 0.000000
1811, 11.043993, 13.846465, 0.000000
1812, -27.136316, -47.374001, 0.000000
1813, -13.360403, 6.194259, 0.000000
1814, -13.871958, 7.385888, 0.000000
1815, 16.161040, -0.804720, 0.000000
1816, 9.908646, -8.809674, 0.000000
1817, 7.562620, -0.940326, 0.000000
1818, -4.642526, 11.210480, 0.000000
1819, 0.459006, -13.536827, 0.000000
1820, 8.878635, 2.998522, 0.000000
1821, -5.019330, 44.133280, 0.000000
1822, 8.823315, -10.702828, 0.000000
1823, -1.793479, 26.323224, 0.000000
1824, 44.921294, -40.088758, 0.000000
1825, 6.061817, -13.237935, 0.000000
1826, -4.104196, 7.217025, 0.000000
1827, -12.058063, -2.349568, 0.000000
1828, 10.807146, -8.285655, 0.000000
1829, 0.178967, -40.186257, 0.000000
1830, -34.312018, -28.319385, 0.000000
1831, 8.651065, -45.115785, 0.000000
1832, -40.319237, 44.006792, 0.000000
1833, -13.623578, -5.176920, 0.000000
1834, -4.845830, -17.283764, 0.000000
1835, -19.008725, 2.234861, 0.000000
1836, -29.631225, -17.717752, 0.000000
1837, -37.035368, -0.884527, 0.000000
1838, -18.459984, 7.776369, 0.000000
1839, 1.529091, 25.595686, 0.000000
1840, 8.617415, -5.141569, 0.000000
1841, 15.682999, -4.157295, 0.000000
1842, -14.126563, -47.782637, 0.000000
1843, -22.027929, -5.870382, 0.000000
1844, -7.792239, -10.475274, 0.000000
1845, -7.025492, 20.890310, 0.000000
1846, -13.749795, -6.519246, 0.000000
1847, 31.791207, 38.330321, 0.000000
1848, 13.402749, -13.328084, 0.000000
1849, 9.979876, 8.871965, 0.000000
1850, -20.413237, 1.074550, 0.000000
1851, -47.928771, 36.759856, 0.000000
1852, 3.225784, -37.783874, 0.000000
1853, -7.461806, 3.396114, 0.000000
1854, 10.719979, -15.503980, 0.000000
1855, 7.693067, 5.781258, 0.000000
1856, -45.748881, -29.282277, 0.000000
1857, -14.595243, -0.872995, 0.000000
1858, -7.102395, 9.634100, 0.000000
1859, 4.486178, 14.837540, 0.000000
1860, -12.142733, -8.649560, 0.000000
1861, -15.708875, -44.325513, 0.000000
1862, 44.876357, 24.666947, 0.000000
1863, -12.520809, -42.624594, 0.000000
1864, -47.533631, -17.177243, 0.000000
1865, -12.093470, 13.524156, 0.000000
1866, 5.558528, -5.654112, 0.000000
1867, -13.076085, 1.907518, 0.000000
1868, -11.647352, 9.445093, 0.000000
1869, -10.192233, 15.976034, 0.000000
1870, -15.349342, 15.247411, 0.000000
1871, -9.903826, -23.874328, 0.000000
1872, -8.266549, 2.724926, 0.000000
1873, -10.571264, -11.053380, 0.000000
1874, 41.269574, -46.077089, 0.000000
1875, -0.170341, -16.462023, 0.000000
1876, -1.583799, -18.248911, 0.000000
1877, -37.920904, -7.041956, 0.000000
1878, 12.566231, 15.295885, 0.000000
1879, -7.445754, -2.180669, 0.000000
1880, -7.965729, 18.791417, 0.000000
1881, 17.076099, -7.985273, 0.000000
1882, -7.087540, -47.581558, 0.000000
1883, 8.714504, 3.932917, 0.000000
1884, -0.909496, -15.226733, 0.000000
1885, 17.123621, -44.394897, 0.000000
1886, -29.954600, -13.157648, 0.000000
1887, 32.926545, 47.656835, 0.000000
1888, 13.456026, 3.306502, 0.000000
1889, 45.478674, -2.890945, 0.000000
1890, 2.676592, 13.760258, 0.000000
1891, 26.774273, 38.271784, 0.000000
1892, -5.130044, 7.042284, 0.000000
1893, 1.971355, -35.005776, 0.000000
1894, -6.177962, -31.630494, 0.000000
1895, -24.930946, -4.828364, 0.000000
1896, 44.640432, -14.173664, 0.000000
1897, 13.144516, -2.361171, 0.000000
1898, -14.976752, -12.524862, 0.000000
1899, -17.455272, -15.622716, 0.000000
1900, 1.627988, 9.273066, 0.000000
1901, 14.238721, -0.366008, 0.000000
1902, -21.003260, -44.664611, 0.000000
1903, 17.186755, 44.706331, 0.000000
1904, -10.895063, -2.924789, 0.000000
1905, 3.053417, 45.322068, 0.000000
1906, -32.847313, 45.421829, 0.000000
1907, -32.161853, 0.069140, 0.000000
1908, -33.086423, -44.419460, 0.000000
1909, 47.639954, 34.720683, 0.000000
1910, 47.621774, 9.799715, 0.000000
1911, -19.079290, 47.057147, 0.000000
1912, -22.083288, -0.235632, 0.000000
1913, 24.155764, -47.568249, 0.000000
1914, -6.801686, -28.301656, 0.000000
1915, -33.157574, -17.639900, 0.000000
1916, 5.113408, 5.526975, 0.000000
1917, 15.369258, 11.484841, 0.000000
1918, 6.775907, -0.869659, 0.000000
1919, -5.456588, 11.341389, 0.000000
1920, 33.425080, -47.697586, 0.000000
1921, 8.563754, 11.118639, 0.000000
1922, -9.502506, -2.870849, 0.000000
1923, 44.461111, 45.075577, 0.000000
1924, 14.385781, 22.506053, 0.000000
1925, 45.745820, -43.931792, 0.000000
1926, -26.662690, -6.877673, 0.000000
1927, -2.671954, -7.642533, 0.000000
1928, 47.336339, -28.513122, 0.000000
1929, 20.818012, -8.988705, 0.000000
1930, 7.509835, -11.347691, 0.000000
1931, -16.828660, -13.301680, 0.000000
1932, 16.125263, -11.666090, 0.000000
1933, -3.522096, 24.295449, 0.000000
1934, 2.679587, -10.901663, 0.000000
1935, -12.402834, 8.582090, 0.000000
1936, 24.665637, 5.998849, 0.000000
1937, 6.701865, 16.328570, 0.000000
1938, -44.332100, 0.967597, 0.000000
1939, -5.910759, -3.850896, 0.000000
1940, 9.828581, 13.445351, 0.000000
1941, 32.848553, 44.626550, 0.000000
1942, 39.981293, 30.471721, 0.000000
1943, 27.104595, 47.656440, 0.000000
1944, -2.377155, -10.174286, 0.000000
1945, 12.939879, 1.136358, 0.000000
1946, -14.261398, 5.413247, 0.000000
1947, -4.649487, -12.887457, 0.000000
1948, -3.197708, -16.916984, 0.000000
1949, 43.786988, 29.272461, 0.000000
1950, -28.551521, -10.248869, 0.000000
1951, 27.633354, 30.732086, 0.000000
1952, -36.716351, -27.055077, 0.000000
1953, -7.824756, 0.602268, 0.000000
1954, 2.427820, -8.023969, 0.000000
1955, -8.231467, 47.396689, 0.000000
1956, 37.722394, 28.600815, 0.000000
1957, -43.329813, 44.620745, 0.000000
1958, 2.813134, 6.166092, 0.000000
1959, 8.605956, 4.824727, 0.000000
1960, 4.682748, -6.112595, 0.000000
1961, -43.268490, -14.952862, 0.000000
1962, -41.258146, -44.757116, 0.000000
1963, -5.933332, 7.288182, 0.000000
1964, -37.574256, 47.482364, 0.000000
1965, 35.588066, 26.656750, 0.000000
1966, -3.995537, -5.575346, 0.000000
1967, -44.397267, -7.105097, 0.000000
1968, -8.495570, -15.495766, 0.000000
1969, -11.169885, 17.300900, 0.000000
1970, -45.719889, 19.818942, 0.000000
1971, -46.237287, 37.857360, 0.000000
1972, -0.084178, 14.565922, 0.000000
1973, -15.248830, 7.576078, 0.000000
1974, -20.096028, 6.251377, 0.000000
1975, 45.716909, 21.820786, 0.000000
1976, 0.816455, -15.250675, 0.000000
1977, 33.447149, 24.874685, 0.000000
1978, 27.498163, 34.076753, 0.000000
1979, 12.337665, 5.724410, 0.000000
1980, -45.225824, 10.721024, 0.000000
1981, 42.310950, 47.363803, 0.000000
1982, 1.113447, 8.529420, 0.000000
1983, 0.621214, 7.405064, 0.000000
1984, -2.598259, 7.951184, 0.000000
1985, -9.561765, 19.470570, 0.000000
1986, -6.163360, -2.939972, 0.000000
1987, 7.600323, -13.344636, 0.000000
1988, 47.215037, -16.420440, 0.000000
1989, 6.837624, -6.090769, 0.000000
1990, 26.130327, 28.470373, 0.000000
1991, -1.583988, -7.500804, 0.000000
1992, 45.046543, -30.982168, 0.000000
1993, -35.816980, -20.680151, 0.000000
1994, -2.388560, -11.723285, 0.000000
1995, 0.003868, 18.162937, 0.000000
1996, 31.570826, 23.443368, 0.000000
1997, -3.448490, -45.613722, 0.000000
1998, -13.053339, -9.546406, 0.000000
1999, -47.339039, -47.424566, 0.000000
2000, 47.601608, -47.611695, 0.000000
2001, 45.638402, -6.058214, 0.000000
2002, -13.941040, 16.709683, 0.000000
2003, 26.734771, 8.323228, 0.000000
2004, -47.500906, 47.441161, 0.000000
2005, 46.941969, 47.766743, 0.000000
2006, 18.241154, 4.346210, 0.000000
2007, 7.882455, 12.053137, 0.000000
2008, 14.277741, -1.425700, 0.000000
2009, -33.546518, 3.858832, 0.000000
2010, -3.970328, 13.746877, 0.000000
2011, -47.491176, -22.766950, 0.000000
2012, 9.377501, 23.030536, 0.000000
2013, -15.643976, -3.662000, 0.000000
2014, 6.923299, 5.026384, 0.000000
2015, -4.818283, 14.581191, 0.000000
2016, -21.549647, 4.472556, 0.000000
2017, 37.206668, -47.762572, 0.000000
2018, 13.755095, 7.129442, 0.000000
2019, -9.246717, -7.212471, 0.000000
2020, 2.887343, -11.892950, 0.000000
2021, 12.402363, -8.555027, 0.000000
2022, -2.166115, -7.212453, 0.000000
2023, -7.158394, 11.635820, 0.000000
2024, 10.961229, -45.229551, 0.000000
2025, -14.878255, 2.748325, 0.000000
2026, -3.757262, 5.898444, 0.000000
2027, -41.191565, -12.851820, 0.000000
2028, -3.506478, -8.457226, 0.000000
2029, -45.522346, -26.775642, 0.000000
2030, -34.748865, 7.098320, 0.000000
2031, 18.921258, -8.487475, 0.000000
2032, -33.524019, 47.572532, 0.000000
2033, -12.483502, 15.753901, 0.000000
2034, 6.135633, 4.327919, 0.000000
2035, 7.527356, -7.140994, 0.000000
2036, 31.106932, 15.141599, 0.000000
2037, 0.557734, -7.459114, 0.000000
2038, 5.861609, -3.202962, 0.000000
2039, 3.596716, -5.612277, 0.000000
2040, 45.915798, 8.365514, 0.000000
2041, -1.824688, 14.577700, 0.000000
2042, -37.857363, -45.632812, 0.000000
2043, -10.449926, -5.002069, 0.000000
2044, 0.736469, -47.975388, 0.000000
2045, -0.331136, 45.686280, 0.000000
2046, -7.281675, 7.731216, 0.000000
2047, -20.985195, 45.418423, 0.000000
2048, -14.333698, -7.205994, 0.000000
2049, -9.304770, -2.019083, 0.000000
2050, -7.305615, -0.013016, 0.000000
2051, 29.080482, 9.722134, 0.000000
2052, 6.019687, 14.439810, 0.000000
2053, -47.496504, 27.760481, 0.000000
2054, 18.223113, -1.094813, 0.000000
2055, -24.883633, -47.118643, 0.000000
2056, 7.354798, -1.850136, 0.000000
2057, 45.754099, 32.485148, 0.000000
2058, 6.209168, 3.434222, 0.000000
2059, 45.466397, 42.216856, 0.000000
2060, -3.326968, 6.881730, 0.000000
2061, 43.659616, -45.743938, 0.000000
2062, 18.325975, 1.071701, 0.000000
2063, -15.396772, 4.594409, 0.000000
2064, 0.449460, -19.900410, 0.000000
2065, -6.364864, 2.535202, 0.000000
2066, -41.373510, -40.832497, 0.000000
2067, 19.882900, -45.442192, 0.000000
2068, 15.909337, 9.118913, 0.000000
2069, 6.223486, -4.407559, 0.000000
2070, 24.574972, 45.854096, 0.000000
2071, 6.764447, -0.139618, 0.000000
2072, -21.119280, 2.949992, 0.000000
2073, 3.645143, -9.518185, 0.000000
2074, -5.991222, 12.423170, 0.000000
2075, -14.684256, -5.595522, 0.000000
2076, -3.114103, 14.784273, 0.000000
2077, -42.826737, -45.740010, 0.000000
2078, 9.935856, -18.603583, 0.000000
2079, -18.902290, -45.772195, 0.000000
2080, -11.087107, 45.491168, 0.000000
2081, -9.869158, -5.982429, 0.000000
2082, 2.736498, 7.109932, 0.000000
2083, -8.042233, 1.844469, 0.000000
2084, 10.324082, -10.062896, 0.000000
2085, -45.609597, -14.913629, 0.000000
2086, -6.981436, -17.707593, 0.000000
2087, 22.086321, 28.992675, 0.000000
2088, 13.672924, -15.325483, 0.000000
2089, -12.495039, 5.420129, 0.000000
2090, -0.434159, 13.156221, 0.000000
2091, 13.928805, 14.983712, 0.000000
2092, 12.087827, -17.138393, 0.000000
2093, -0.653988, -6.937719, 0.000000
2094, 21.412197, -6.935119, 0.000000
2095, -24.530253, 0.514183, 0.000000
2096, -11.709066, 7.894653, 0.000000
2097, 18.015935, 29.859930, 0.000000
2098, 0.480934, 20.246768, 0.000000
2099, -45.980493, -11.520861, 0.000000
2100, 16.280851, 13.841968, 0.000000
2101, 17.487659, 26.306812, 0.000000
2102, -8.022778, -0.657569, 0.000000
2103, 45.992810, 30.011052, 0.000000
2104, -7.557796, 23.042436, 0.000000
2105, -29.612309, -14.774443, 0.000000
2106, -39.422162, -10.052732, 0.000000
*ELEMENT, TYPE=S4R, ELSET=SHELL_QUADS
1, 1090, 1374, 1306, 1937
2, 2075, 462, 2013, 1335
3, 1284, 1922, 1074, 1904
4, 1476, 1821, 236, 1955
5, 1257, 1982, 1103, 1983
6, 1939, 1986, 1160, 1163
7, 1243, 1310, 1934, 2020
8, 183, 1879, 1160, 1986
9, 1238, 1828, 1816, 2084
10, 1159, 1729, 1389, 1738
11, 769, 1738, 1389, 2036
12, 1209, 2054, 1208, 2062
13, 1155, 2097, 1293, 2087
14, 1976, 1285, 1819, 1152
15, 1071, 1801, 1940, 1374
16, 1939, 1760, 175, 28
17, 1797, 1254, 1941, 1073
18, 1563, 1673, 236, 1821
19, 402, 1990, 1292, 2087
20, 1219, 1807, 212, 1943
21, 763, 1735, 1390, 2051
22, 1381, 180, 1355, 1954
23, 1398, 2030, 1121, 2009
24, 1931, 1898, 1339, 1041
25, 480, 1350, 1209, 2062
26, 2031, 1881, 918, 1694
27, 1261, 38, 37, 2039
28, 1210, 1866, 1026, 1989
29, 241, 1774, 1459, 1957
30, 1787, 41, 40, 2038
31, 1575, 1576, 197, 1882
32, 1269, 1275, 1234, 1995
33, 228, 1566, 1567, 1903
34, 1733, 201, 1437, 1438
35, 1958, 1149, 1150, 2082
36, 2034, 1198, 2014, 1270
37, 1202, 34, 214, 2037
38, 1826, 886, 2026, 2060
39, 37, 36, 1783, 2039
40, 1847, 1797, 1073, 1072
41, 1316, 2046, 1402, 1963
42, 818, 1876, 1260, 2064
43, 1210, 2069, 177, 1866
44, 193, 1207, 1206, 1655
45, 1315, 928, 929, 1858
46, 40, 39, 1327, 2038
47, 1287, 6, 1, 2071
48, 1709, 10, 176, 1916
49, 1832, 217, 1653, 1957
50, 489, 1301, 1284, 1904
51, 1117, 1942, 1956, 1116
52, 672, 1723, 1693, 2090
53, 888, 887, 1298, 1968
54, 1860, 471, 1338, 1998
55, 567, 565, 563, 1828
56, 2048, 1846, 2075, 1336
57, 1391, 2019, 1119, 2081
58, 1234, 1275, 1972, 1233
59, 1293, 2097, 1543, 2101
60, 1152, 1884, 1875, 1976
61, 198, 1326, 1565, 1566
62, 1334, 1333, 1173, 2018
63, 1678, 1602, 1785, 234
64, 1280, 2092, 1179, 2078
65, 2085, 1273, 2099, 232
66, 1375, 1855, 1199, 1959
67, 1135, 1977, 1996, 1159
68, 635, 486, 1443, 1877
69, 1093, 900, 1571, 2042
70, 199, 1793, 1272, 1967
71, 1914, 1753, 393, 1687
72, 548, 547, 546, 549
73, 1843, 1102, 1895, 1371
74, 1528, 1529, 1526, 1527
75, 1655, 1206, 1800, 230
76, 1307, 1968, 1184, 2086
77, 1829, 1111, 1852, 1136
78, 320, 399, 2072, 2016
79, 1861, 227, 1842, 1577
80, 1585, 1965, 1977, 1135
81, 1845, 281, 283, 287
82, 1571, 2066, 1529, 1962
83, 1116, 1956, 1965, 1585
84, 1198, 2034, 2058, 1195
85, 393, 376, 378, 1871
86, 1813, 1814, 1228, 1946
87, 1615, 2043, 472, 2081
88, 1204, 15, 213, 1756
89, 1293, 1645, 402, 2087
90, 1926, 1432, 1950, 1089
91, 1389, 1387, 1388, 2036
92, 1, 42, 1918, 2071
93, 235, 1717, 1216, 1862
94, 1837, 1744, 1443, 522
95, 1472, 1847, 1072, 1891
96, 231, 1588, 1165, 1589
97, 906, 853, 904, 1881
98, 1720, 1924, 1544, 1539
99, 1280, 350, 502, 2092
100, 2010, 879, 1187, 2076
101, 1200, 1317, 183, 25
102, 550, 552, 840, 1243
103, 1201, 179, 1762, 2060
104, 1212, 1076, 1902, 2079
105, 1265, 186, 1266, 2083
106, 1949, 2103, 2057, 1252
107, 1679, 235, 1862, 1975
108, 1695, 982, 1574, 1997
109, 1941, 1887, 212, 1807
110, 1154, 1879, 940, 1609
111, 1700, 678, 1268, 1844
112, 1784, 1108, 1938, 225
113, 1390, 1386, 1392, 2051
114, 662, 1324, 1174, 1415
115, 1951, 1294, 1292, 1990
116, 565, 567, 1802, 570
117, 1936, 1521, 2003, 353
118, 1248, 1247, 906, 1249
119, 1871, 1075, 1687, 393
120, 462, 458, 1764, 2013
121, 732, 1869, 1969, 2033
122, 1149, 1125, 1126, 1150
123, 1985, 1880, 1845, 1368
124, 1836, 1418, 1805, 1167
125, 914, 916, 1840, 1340
126, 1814, 1706, 1935, 1332
127, 71, 2017, 1555, 1920
128, 1432, 487, 673, 1950
129, 1166, 1043, 1089, 1950
130, 645, 644, 1724, 649
131, 1226, 1016, 1017, 1894
132, 1210, 994, 993, 2069
133, 383, 381, 414, 638
134, 371, 479, 541, 2064
135, 989, 1016, 1062, 1742
136, 1618, 869, 1151, 2056
137, 1526, 1274, 215, 1527
138, 1969, 481, 1985, 1366
139, 241, 173, 174, 2004
140, 1189, 1114, 1143, 1927
141, 910, 1520, 1521, 1633
142, 258, 488, 1325, 260
143, 1961, 1513, 2027, 1273
144, 1103, 1088, 999, 1756
145, 1855, 1124, 2014, 1199
146, 1894, 1017, 1914, 1583
147, 1117, 1101, 1216, 1949
148, 1124, 1123, 1270, 2014
149, 181, 31, 1291, 1730
150, 791, 674, 712, 1915
151, 1286, 1837, 522, 1907
152, 1759, 146, 1887, 1255
153, 399, 1912, 1850, 2072
154, 1804, 220, 1458, 1459
155, 1300, 860, 1006, 1948
156, 260, 1325, 1264, 262
157, 1765, 1628, 1183, 2037
158, 11, 1709, 1149, 1958
159, 1135, 881, 882, 1585
160, 1018, 974, 936, 1782
161, 932, 842, 884, 2102
162, 659, 1743, 1333, 1979
163, 1256, 1724, 644, 1803
164, 1317, 1200, 2050, 2102
165, 575, 566, 1279, 1340
166, 1327, 2069, 1144, 2038
167, 1563, 1562, 1215, 2045
168, 1070, 1068, 1069, 2052
169, 329, 328, 330, 331
170, 365, 1792, 1235, 366
171, 1798, 223, 1480, 1479
172, 857, 1684, 1331, 1718
173, 1513, 714, 734, 2027
174, 1109, 931, 1227, 1838
175, 1744, 1131, 1877, 1443
176, 874, 828, 709, 2025
177, 861, 859, 1361, 1712
178, 1193, 1194, 1195, 2058
179, 1102, 1282, 1808, 1895
180, 1107, 1130, 1131, 1744
181, 303, 301, 415, 1878
182, 1872, 1320, 1049, 2083
183, 1177, 1987, 1825, 1277
184, 901, 1534, 1525, 2066
185, 1455, 1964, 217, 1832
186, 1753, 374, 376, 393
187, 1438, 1896, 224, 1733
188, 326, 324, 412, 1168
189, 1112, 1051, 1211, 2074
190, 898, 1116, 1585, 882
191, 1000, 921, 1072, 1073
192, 902, 1994, 1710, 1944
193, 1687, 958, 1583, 1914
194, 1081, 1082, 1236, 2068
195, 715, 1993, 1420, 1915
196, 1110, 1022, 1024, 1960
197, 1127, 1128, 1129, 2008
198, 1758, 1250, 1251, 1909
199, 1262, 1988, 224, 1896
200, 1200, 24, 1192, 2050
201, 1309, 1780, 1082, 1079
202, 192, 1218, 1602, 1678
203, 1885, 237, 1677, 2067
204, 701, 1591, 1319, 1732
205, 1281, 1130, 1108, 1784
206, 1721, 287, 1933, 1147
207, 1041, 1039, 1344, 1931
208, 1561, 1682, 187, 1913
209, 240, 74, 75, 2000
210, 2008, 1129, 1354, 1901
211, 1677, 66, 187, 2067
212, 1370, 876, 1136, 1893
213, 1264, 1325, 1098, 2023
214, 647, 645, 649, 1723
215, 1174, 1840, 916, 994
216, 574, 572, 568, 2020
217, 707, 1867, 1156, 2025
218, 233, 101, 1666, 2029
219, 1900, 729, 1647, 1982
220, 232, 97, 1864, 2085
221, 278, 2015, 1271, 280
222, 481, 277, 279, 1880
223, 1579, 790, 1542, 2097
224, 380, 1685, 1871, 378
225, 1689, 1383, 1742, 1062
226, 1326, 198, 1788, 1120
227, 133, 134, 235, 1679
228, 220, 79, 1851, 1971
229, 1051, 1050, 879, 2010
230, 1704, 661, 1703, 1777
231, 1132, 1131, 1130, 1967
232, 1047, 1175, 1176, 1854
233, 295, 297, 296, 292
234, 886, 245, 1357, 2026
235, 1251, 1005, 1252, 2057
236, 919, 905, 975, 976
237, 1589, 1165, 1796, 1695
238, 1133, 1853, 1266, 2065
239, 17, 16, 179, 1201
240, 1198, 1197, 1199, 2014
241, 1114, 1113, 827, 1115
242, 1806, 1001, 1146, 1839
243, 1179, 1178, 1792, 2078
244, 1304, 1318, 1145, 1992
245, 1075, 1871, 1685, 1641
246, 1017, 663, 1753, 1914
247, 182, 1191, 1190, 13
248, 1499, 1497, 1812, 2055
249, 177, 39, 38, 1261
250, 194, 1798, 1479, 1970
251, 940, 884, 885, 2049
252, 1105, 1107, 1744, 1837
253, 1780, 1334, 2018, 1082
254, 1392, 1786, 353, 2003
255, 1439, 416, 417, 1996
256, 1950, 673, 1886, 1166
257, 1949, 1252, 1942, 1117
258, 1062, 1370, 1893, 1689
259, 1338, 1336, 1337, 1339
260, 218, 1531, 1250, 1758
261, 661, 1704, 1705, 1711
262, 522, 1443, 486, 449
263, 176, 2034, 1270, 1916
264, 1232, 1230, 1231, 1233
265, 1186, 991, 1474, 2080
266, 1779, 1748, 1334, 1780
267, 175, 1617, 1185, 1966
268, 842, 932, 1642, 841
269, 1906, 1461, 1795, 210
270, 301, 303, 302, 300
271, 1517, 1516, 1518, 2024
272, 1056, 1055, 1091, 1092
273, 170, 1964, 1457, 2032
274, 914, 865, 869, 915
275, 237, 64, 65, 1677
276, 1614, 1818, 1919, 970
277, 345, 1299, 1278, 347
278, 1823, 1523, 1147, 1933
279, 1652, 242, 1923, 2059
280, 1894, 846, 1688, 1226
281, 1303, 1764, 457, 1857
282, 142, 143, 1775, 2005
283, 615, 1780, 1309, 1849
284, 1205, 816, 1345, 1994
285, 1257, 1191, 1258, 1982
286, 449, 429, 426, 1907
287, 818, 1875, 1300, 1876
288, 1435, 1434, 1437, 2001
289, 1878, 2091, 305, 303
290, 1415, 1989, 1139, 2035
291, 255, 1369, 488, 258
292, 320, 294, 319, 397
293, 1634, 364, 1633, 1521
294, 1905, 1052, 1120, 1761
295, 322, 309, 307, 2100
296, 1793, 96, 232, 2099
297, 230, 1800, 1346, 1928
298, 1197, 1198, 1195, 1196
299, 1318, 1304, 1011, 1319
300, 1616, 646, 729, 1900
301, 1180, 1132, 1181, 2106
302, 526, 525, 1394, 678
303, 1093, 1671, 1675, 1908
304, 400, 417, 416, 401
305, 544, 1285, 1976, 543
306, 1810, 1572, 1095, 1094
307, 1777, 1703, 254, 256
308, 1640, 1394, 525, 1860
309, 1691, 1769, 1189, 2028
310, 1167, 1342, 1043, 1166
311, 1663, 53, 227, 2079
312, 1917, 1276, 322, 2100
313, 1295, 920, 967, 2070
314, 1324, 575, 1840, 1174
315, 185, 42, 41, 1787
316, 935, 936, 973, 1183
317, 1657, 58, 207, 1997
318, 1731, 1011, 814, 739
319, 401, 416, 418, 1990
320, 1116, 898, 1101, 1117
321, 1162, 1078, 1080, 1182
322, 1165, 978, 1111, 1796
323, 287, 283, 285, 1933
324, 2072, 1850, 1835, 1148
325, 233, 1739, 1290, 2011
326, 1717, 135, 204, 2103
327, 628, 539, 1691, 1790
328, 305, 2100, 307, 306
329, 1638, 604, 606, 653
330, 426, 404, 433, 1907
331, 1364, 1367, 1726, 1363
332, 1161, 966, 1287, 2071
333, 1728, 731, 1716, 1263
334, 1113, 1114, 1769, 1944
335, 450, 452, 429, 449
336, 1820, 725, 1638, 1883
337, 1016, 1226, 1370, 1062
338, 1235, 1296, 479, 369
339, 1158, 451, 1776, 2089
340, 353, 325, 327, 1936
341, 1481, 899, 1480, 1980
342, 1329, 348, 1330, 1718
343, 1682, 1506, 1507, 2067
344, 571, 1279, 566, 570
345, 1168, 1169, 1170, 2006
346, 1034, 1031, 1033, 1035
347, 977, 1278, 1299, 1932
348, 1761, 157, 208, 1905
349, 848, 1513, 939, 911
350, 195, 2080, 1476, 1955
351, 416, 1439, 447, 418
352, 208, 158, 1673, 2045
353, 265, 267, 264, 263
354, 544, 543, 542, 545
355, 965, 1145, 1318, 1591
356, 286, 285, 284, 2098
357, 625, 726, 855, 1921
358, 196, 63, 1672, 2024
359, 323, 1786, 930, 309
360, 1731, 1482, 1732, 1319
361, 1362, 1754, 1313, 1312
362, 1075, 957, 958, 1687
363, 663, 1017, 1016, 989
364, 895, 1573, 788, 889
365, 1933, 285, 291, 1823
366, 863, 865, 1340, 1279
367, 1865, 732, 2033, 1153
368, 769, 764, 766, 770
369, 1383, 1382, 631, 1742
370, 1227, 710, 1719, 1838
371, 1742, 631, 1747, 989
372, 2041, 1188, 1972, 1275
373, 987, 812, 1027, 1781
374, 186, 23, 22, 2065
375, 1522, 702, 703, 1942
376, 333, 332, 334, 335
377, 1203, 181, 2022, 1991
378, 1037, 1337, 1036, 1035
379, 397, 319, 1629, 1397
380, 1415, 1174, 994, 1989
381, 1530, 1004, 1254, 1797
382, 1566, 153, 154, 198
383, 329, 1634, 1936, 327
384, 595, 588, 587, 1897
385, 1279, 571, 583, 863
386, 1750, 1436, 1889, 226
387, 1436, 880, 1435, 1889
388, 611, 609, 1779, 615
389, 1416, 390, 391, 1805
390, 1507, 1505, 1508, 1885
391, 1911, 165, 188, 2047
392, 452, 450, 1432, 1926
393, 1541, 1702, 1789, 2012
394, 266, 275, 732, 1865
395, 282, 280, 411, 1269
396, 1282, 1102, 1032, 1912
397, 1215, 952, 1052, 1905
398, 1369, 253, 1424, 2046
399, 865, 863, 864, 866
400, 525, 526, 470, 469
401, 469, 465, 471, 1860
402, 1522, 1252, 1005, 835
403, 334, 332, 409, 1248
404, 1773, 1442, 992, 990
405, 961, 962, 966, 986
406, 1089, 1040, 1371, 1926
407, 223, 88, 1661, 1980
408, 1827, 1134, 1791, 455
409, 1123, 981, 1125, 1916
410, 881, 1135, 1159, 1738
411, 1122, 913, 933, 1952
412, 1172, 1351, 1350, 1170
413, 1446, 364, 1752, 1396
414, 1221, 1213, 1214, 1222
415, 776, 310, 313, 1645
416, 1368, 1367, 1366, 1985
417, 1745, 1126, 1715, 692
418, 527, 529, 1643, 2019
419, 373, 663, 989, 1747
420, 1098, 929, 970, 1725
421, 1292, 955, 1155, 2087
422, 1220, 1021, 1019, 2073
423, 517, 520, 699, 1684
424, 451, 434, 424, 1776
425, 927, 923, 1612, 1163
426, 1362, 699, 520, 630
427, 1451, 1454, 1458, 1578
428, 977, 919, 976, 1848
429, 1108, 1107, 1106, 1938
430, 106, 107, 1527, 215
431, 1817, 1151, 1763, 986
432, 1067, 637, 1066, 2007
433, 1883, 1638, 653, 1959
434, 1892, 1141, 1608, 1963
435, 298, 300, 2012, 1789
436, 293, 1772, 321, 319
437, 555, 554, 553, 1930
438, 523, 447, 1439, 1977
439, 1046, 1321, 1175, 1047
440, 1076, 1551, 1500, 1902
441, 974, 1019, 1020, 1954
442, 1498, 1496, 1497, 1499
443, 1106, 1097, 1572, 1938
444, 1519, 477, 476, 1830
445, 618, 617, 625, 1794
446, 1136, 876, 875, 1829
447, 1157, 451, 1158, 1946
448, 1817, 1918, 185, 2056
449, 862, 1364, 1363, 314
450, 1118, 1519, 1830, 1952
451, 1008, 814, 1010, 1800
452, 1164, 1284, 1301, 2043
453, 1065, 1548, 1549, 1903
454, 2013, 1302, 1034, 1335
455, 1078, 856, 1079, 1080
456, 1597, 1592, 1001, 1806
457, 342, 341, 1299, 345
458, 268, 1153, 1870, 270
459, 596, 540, 538, 1707
460, 1021, 1220, 1605, 1023
461, 1138, 996, 1137, 1970
462, 1330, 346, 349, 1627
463, 1061, 845, 1060, 1821
464, 204, 136, 1909, 2057
465, 998, 1214, 1213, 997
466, 619, 909, 1323, 614
467, 1005, 1251, 1250, 1002
468, 707, 709, 708, 453
469, 1143, 1114, 1115, 1991
470, 903, 594, 1802, 1347
471, 1115, 827, 1628, 1765
472, 348, 1329, 1328, 1372
473, 200, 128, 1910, 2040
474, 838, 728, 839, 1852
475, 609, 607, 1748, 1779
476, 201, 123, 1660, 2001
477, 729, 648, 1639, 1647
478, 637, 1067, 1068, 1683
479, 1583, 1582, 846, 1894
480, 1625, 980, 1124, 1855
481, 1649, 1623, 725, 1820
482, 1692, 1693, 1723, 649
483, 1144, 915, 1618, 1787
484, 1863, 1584, 1861, 1577
485, 1407, 321, 1772, 1405
486, 1273, 1181, 1272, 2099
487, 808, 876, 1688, 806
488, 1684, 699, 1637, 1331
489, 578, 774, 700, 577
490, 762, 764, 763, 761
491, 435, 425, 434, 1867
492, 1754, 1362, 630, 634
493, 1033, 1032, 1102, 1843
494, 1359, 443, 690, 1048
495, 1100, 897, 1218, 1975
496, 926, 925, 1609, 1922
497, 1240, 1003, 1531, 2059
498, 894, 893, 1581, 1891
499, 417, 400, 1413, 1729
500, 338, 339, 337, 336
501, 1153, 268, 265, 1865
502, 775, 578, 1360, 934
503, 366, 1235, 369, 368
504, 76, 77, 1774, 2004
505, 77, 78, 1804, 1774
506, 1268, 1755, 887, 792
507, 2092, 2088, 1305, 1854
508, 631, 367, 368, 1747
509, 1782, 1360, 574, 1934
510, 308, 312, 310, 306
511, 1035, 1033, 1843, 1038
512, 1234, 1231, 1314, 1995
513, 1045, 1047, 1305, 1848
514, 364, 1634, 331, 333
515, 1699, 961, 986, 1763
516, 1907, 433, 2009, 1286
517, 1185, 1013, 1291, 1966
518, 629, 633, 630, 520
519, 1245, 1669, 1795, 1535
520, 1635, 831, 832, 877
521, 359, 365, 366, 367
522, 186, 1265, 1192, 23
523, 1588, 1054, 978, 1165
524, 1818, 821, 1626, 1050
525, 1654, 1137, 1768, 229
526, 113, 114, 1348, 1349
527, 1202, 1355, 180, 35
528, 1686, 964, 968, 1824
529, 245, 246, 244, 178
530, 839, 1400, 1689, 1893
531, 1085, 1377, 1086, 963
532, 1863, 1576, 1596, 854
533, 978, 837, 838, 1111
534, 1335, 1036, 1336, 2075
535, 1668, 104, 105, 215
536, 240, 1771, 1925, 2061
537, 849, 912, 913, 1993
538, 529, 531, 632, 1643
539, 1051, 2010, 2015, 1211
540, 219, 46, 1671, 2042
541, 710, 1332, 267, 269
542, 692, 640, 1624, 1745
543, 1786, 323, 325, 353
544, 826, 775, 934, 935
545, 985, 1575, 1574, 870
546, 944, 1444, 1380, 1853
547, 566, 575, 564, 565
548, 556, 557, 558, 1757
549, 182, 13, 12, 1958
550, 1411, 316, 1363, 1726
551, 463, 461, 460, 1833
552, 1752, 333, 335, 1376
553, 691, 652, 1714, 843
554, 1547, 1518, 1516, 736
555, 36, 35, 180, 1783
556, 246, 248, 247, 244
557, 1850, 1030, 1028, 1835
558, 652, 444, 1341, 1714
559, 1003, 1240, 1239, 1004
560, 909, 619, 621, 979
561, 1320, 1379, 1048, 1049
562, 854, 1580, 1584, 1863
563, 1372, 1328, 946, 1373
564, 1935, 1868, 264, 1332
565, 1493, 1492, 1490, 1785
566, 1419, 431, 1417, 1418
567, 614, 1323, 612, 613
568, 1400, 1064, 1383, 1689
569, 427, 1834, 1307, 2086
570, 863, 583, 585, 864
571, 291, 286, 292, 1839
572, 1743, 605, 603, 616
573, 846, 804, 806, 1688
574, 388, 391, 390, 389
575, 1893, 1136, 1852, 839
576, 378, 377, 379, 380
577, 361, 245, 886, 1892
578, 1015, 885, 843, 1714
579, 1259, 1087, 1058, 1908
580, 1112, 1818, 1050, 1051
581, 1029, 1302, 1303, 796
582, 275, 274, 276, 277
583, 576, 556, 1757, 1622
584, 2039, 1110, 1960, 1261
585, 1379, 1320, 724, 421
586, 485, 1471, 1472, 1978
587, 735, 1511, 1085, 963
588, 1708, 1836, 791, 1915
589, 1054, 1518, 1547, 837
590, 1553, 1552, 1556, 1749
591, 340, 338, 341, 342
592, 1382, 1064, 1650, 1401
593, 1991, 1115, 1765, 2093
594, 1737, 971, 1698, 1322
595, 1637, 1312, 938, 947
596, 1101, 898, 1100, 1862
597, 444, 652, 443, 435
598, 581, 570, 1802, 594
599, 1465, 483, 523, 1965
600, 1627, 349, 351, 360
601, 447, 523, 483, 448
602, 372, 374, 373, 370
603, 1412, 992, 1442, 2047
604, 969, 819, 1619, 1984
605, 1912, 1032, 1030, 1850
606, 1683, 627, 624, 637
607, 1540, 1590, 1597, 1702
608, 1665, 126, 127, 200
609, 1656, 44, 45, 219
610, 972, 1012, 1013, 1185
611, 1786, 1392, 1386, 930
612, 636, 673, 487, 635
613, 1426, 1425, 1430, 1728
614, 454, 446, 453, 1857
615, 599, 601, 602, 1623
616, 1177, 1176, 1175, 1987
617, 643, 641, 644, 645
618, 637, 624, 623, 1066
619, 1022, 1110, 1381, 1020
620, 877, 834, 1586, 2030
621, 1626, 696, 680, 713
622, 346, 1330, 348, 344
623, 347, 350, 349, 346
624, 1757, 558, 1722, 1140
625, 1839, 1146, 1823, 291
626, 920, 1548, 892, 894
627, 218, 139, 1652, 2059
628, 1520, 2051, 2003, 1521
629, 1064, 666, 521, 1650
630, 387, 388, 386, 384
631, 1697, 476, 430, 431
632, 711, 1530, 1797, 1847
633, 725, 602, 604, 1638
634, 352, 1280, 365, 359
635, 982, 875, 870, 1574
636, 354, 355, 313, 312
637, 1828, 563, 561, 1816
638, 739, 738, 1482, 1731
639, 991, 1186, 990, 794
640, 867, 1481, 1094, 868
641, 1798, 194, 86, 87
642, 461, 489, 459, 460
643, 984, 965, 964, 1686
644, 440, 356, 1411, 660
645, 1491, 1490, 1487, 2040
646, 1380, 724, 1320, 1872
647, 386, 1410, 385, 384
648, 813, 1473, 639, 739
649, 1660, 124, 226, 1889
650, 344, 348, 1372, 343
651, 1121, 1104, 1286, 2009
652, 1718, 1627, 513, 857
653, 1022, 1021, 1023, 1024
654, 1662, 2070, 1219, 1943
655, 1475, 1474, 991, 1501
656, 1568, 1573, 1564, 1053
657, 706, 832, 831, 694
658, 290, 271, 289, 293
659, 1223, 1224, 1222, 1214
660, 345, 346, 344, 342
661, 1126, 1125, 981, 1715
662, 980, 979, 981, 1123
663, 1498, 1500, 1551, 815
664, 1886, 674, 791, 2105
665, 661, 420, 257, 1703
666, 465, 466, 464, 463
667, 1137, 996, 995, 1768
668, 699, 1362, 1312, 1637
669, 1463, 1511, 468, 442
670, 277, 276, 278, 279
671, 620, 618, 1794, 623
672, 336, 335, 334, 2094
673, 660, 1463, 442, 440
674, 1666, 102, 203, 1856
675, 1396, 1445, 959, 1446
676, 273, 272, 270, 1870
677, 880, 1436, 1606, 754
678, 976, 975, 1044, 1045
679, 563, 564, 562, 561
680, 1376, 1395, 1396, 1752
681, 790, 1579, 1587, 787
682, 7, 6, 184, 1193
683, 681, 960, 961, 1699
684, 953, 797, 1076, 1212
685, 1406, 1404, 1409, 1646
686, 599, 598, 593, 600
687, 250, 251, 249, 248
688, 789, 890, 889, 788
689, 1646, 693, 694, 831
690, 537, 538, 539, 628
691, 1475, 1536, 845, 1061
692, 573, 559, 557, 1822
693, 524, 1384, 1385, 1387
694, 1409, 945, 1462, 693
695, 945, 1409, 1404, 1403
696, 1497, 1259, 211, 1812
697, 1580, 798, 953, 1584
698, 714, 848, 715, 712
699, 1631, 1407, 1408, 1635
700, 406, 1462, 945, 362
701, 178, 244, 243, 20
702, 952, 1215, 1562, 1569
703, 405, 1417, 431, 430
704, 1551, 1076, 797, 747
705, 404, 426, 410, 398
706, 1445, 1396, 1395, 498
707, 360, 510, 513, 1627
708, 1477, 1478, 1532, 705
709, 487, 1432, 450, 486
710, 385, 1685, 382, 384
711, 21, 243, 1133, 2065
712, 312, 1384, 524, 354
713, 736, 1516, 1515, 1514
714, 1214, 998, 1603, 1223
715, 483, 1465, 655, 484
716, 1477, 1512, 996, 1138
717, 534, 1322, 532, 533
718, 703, 655, 1465, 1956
719, 1515, 1508, 1505, 1503
720, 1417, 394, 1416, 1418
721, 166, 167, 1670, 188
722, 1501, 684, 1536, 1475
723, 873, 1523, 1570, 718
724, 827, 777, 826, 1628
725, 962, 961, 960, 1649
726, 693, 1462, 493, 669
727, 8, 1193, 2058, 1237
728, 465, 463, 1846, 471
729, 617, 614, 613, 1849
730, 1620, 340, 343, 1373
731, 807, 806, 805, 1596
732, 731, 506, 1473, 1716
733, 251, 419, 1444, 249
734, 537, 628, 1322, 534
735, 1489, 1492, 765, 1494
736, 1083, 957, 1641, 1410
737, 1096, 1095, 1097, 1104
738, 951, 1146, 1001, 778
739, 1582, 1583, 958, 809
740, 641, 640, 627, 1803
741, 646, 647, 648, 729
742, 1615, 1119, 922, 924
743, 1590, 782, 1592, 1597
744, 1403, 317, 362, 945
745, 956, 957, 1083, 1447
746, 413, 495, 1395, 1376
747, 1538, 1541, 1720, 1539
748, 1620, 1422, 494, 339
749, 396, 1447, 1433, 392
750, 804, 846, 1582, 802
751, 477, 1519, 501, 500
752, 728, 837, 727, 666
753, 1312, 1313, 917, 938
754, 390, 394, 392, 389
755, 1788, 156, 1761, 1120
756, 1824, 1595, 1925, 1659
757, 810, 766, 1492, 1493
758, 669, 705, 694, 693
759, 389, 1433, 1410, 386
760, 509, 358, 1401, 1650
761, 844, 721, 1569, 1562
762, 1087, 1550, 847, 1058
763, 509, 510, 360, 358
764, 778, 1001, 1592, 779
765, 1938, 1572, 1658, 225
766, 184, 1378, 1194, 1193
767, 1512, 1477, 705, 669
768, 1593, 717, 1598, 1557
769, 897, 882, 811, 1601
770, 1422, 937, 503, 496
771, 795, 992, 1441, 1414
772, 876, 1370, 1226, 1688
773, 309, 930, 1384, 308
774, 834, 833, 867, 868
775, 519, 629, 520, 517
776, 477, 478, 432, 476
777, 825, 968, 964, 750
778, 812, 987, 773, 677
779, 648, 650, 651, 1639
780, 1506, 1504, 1505, 1507
781, 868, 1094, 1095, 1096
782, 949, 996, 1512, 668
783, 458, 459, 456, 457
784, 1794, 625, 1921, 1066
785, 253, 1369, 255, 254
786, 1509, 508, 1550, 1087
787, 1188, 878, 1736, 2090
788, 633, 629, 1593, 858
789, 852, 851, 822, 1614
790, 340, 1620, 339, 338
791, 937, 1467, 505, 503
792, 651, 670, 671, 1632
793, 222, 144, 145, 1759
794, 1012, 972, 971, 1737
795, 1009, 1206, 1207, 1716
796, 727, 1547, 736, 665
797, 500, 508, 478, 477
798, 440, 441, 403, 356
799, 820, 821, 822, 829
800, 612, 682, 610, 611
801, 1501, 991, 794, 683
802, 250, 1424, 253, 252
803, 1485, 1489, 1494, 1483
804, 1450, 1449, 1546, 1453
805, 316, 356, 317, 315
806, 872, 871, 751, 1621
807, 634, 633, 688, 689
808, 252, 257, 251, 250
809, 870, 808, 807, 985
810, 750, 965, 1591, 689
811, 342, 344, 343, 340
812, 704, 711, 656, 702
813, 516, 1533, 519, 517
814, 666, 727, 665, 521
815, 442, 468, 467, 441
816, 1509, 1496, 815, 745
817, 395, 396, 392, 394
818, 315, 1403, 737, 288
819, 688, 858, 1552, 749
820, 1654, 85, 194, 1970
821, 1434, 753, 767, 1427
822, 1371, 1040, 1038, 1843
823, 1524, 1448, 1084, 1611
824, 1546, 658, 1510, 1460
825, 357, 363, 362, 317
826, 421, 419, 420, 422
827, 408, 1448, 395, 405
828, 1449, 1604, 658, 1546
829, 1495, 1448, 408, 432
830, 407, 436, 406, 363
831, 670, 651, 650, 672
832, 689, 688, 749, 750
833, 436, 493, 1462, 406
834, 717, 519, 1533, 1600
835, 773, 1534, 676, 677
836, 1610, 1611, 799, 801
837, 665, 1514, 518, 521
838, 514, 654, 516, 515
839, 494, 496, 495, 413
840, 1421, 363, 357, 403
841, 508, 745, 744, 478
842, 1429, 1431, 1428, 473
843, 1534, 901, 752, 676
844, 655, 703, 702, 656
845, 363, 1421, 1423, 407
846, 753, 754, 698, 697
847, 497, 697, 498, 495
848, 836, 1530, 704, 835
849, 403, 441, 1428, 1421
850, 1451, 1224, 1450, 1452
851, 473, 1428, 441, 467
852, 422, 420, 1711, 1776
853, 1414, 1441, 943, 1440
854, 1440, 943, 1470, 1429
855, 1511, 686, 491, 468
856, 1533, 516, 654, 1504
857, 896, 825, 749, 1552
858, 1514, 1515, 1503, 1502
859, 752, 847, 664, 676
860, 772, 1470, 943, 941
861, 923, 922, 872, 1612
862, 512, 514, 513, 510
863, 518, 1502, 512, 511
864, 758, 1483, 760, 759
865, 1002, 1531, 1003, 836
866, 1431, 1423, 1421, 1428
867, 1447, 1524, 1610, 956
868, 438, 407, 1423, 1613
869, 1244, 908, 941, 1412
870, 491, 684, 683, 490
871, 745, 747, 746, 744
872, 499, 1430, 1425, 497
873, 794, 990, 795, 685
874, 1504, 654, 1503, 1505
875, 1470, 772, 743, 942
876, 685, 1469, 490, 683
877, 1402, 246, 361, 1963
878, 1440, 1429, 473, 1469
879, 1414, 1440, 1469, 685
880, 717, 1593, 629, 519
881, 1611, 1084, 746, 748
882, 503, 504, 499, 496
883, 1466, 948, 492, 437
884, 438, 439, 437, 407
885, 925, 924, 923, 927
886, 748, 746, 747, 797
887, 756, 768, 758, 757
888, 505, 506, 504, 503
889, 768, 1484, 1483, 758
890, 668, 669, 493, 492
891, 474, 438, 1613, 741
892, 772, 908, 771, 743
893, 948, 1466, 1468, 950
894, 507, 639, 506, 505
895, 950, 995, 949, 948
896, 686, 718, 687, 684
897, 743, 771, 742, 741
898, 1154, 925, 927, 1160
899, 735, 873, 718, 686
900, 718, 1570, 719, 687
901, 798, 748, 797, 953
902, 667, 475, 1604, 1603
903, 809, 801, 802, 1582
904, 719, 722, 721, 720
905, 801, 799, 800, 802
906, 722, 778, 723, 721
907, 475, 667, 439, 474
908, 803, 805, 804, 802
909, 779, 782, 781, 780
910, 783, 781, 782, 784
911, 784, 786, 785, 783
912, 790, 786, 1537, 1542
913, 830, 1537, 786, 784
914, 786, 790, 787, 785
915, 789, 788, 787, 1587
916, 78, 79, 220, 1804
917, 1281, 93, 94, 199
918, 87, 88, 223, 1798
919, 72, 73, 216, 2017
920, 171, 172, 217, 1964
921, 239, 107, 108, 1999
922, 785, 788, 1573, 783
923, 657, 1510, 658, 475
924, 824, 952, 780, 781
925, 779, 780, 723, 778
926, 720, 721, 844, 845
927, 800, 1580, 803, 802
928, 474, 741, 657, 475
929, 798, 800, 799, 748
930, 507, 740, 738, 639
931, 1486, 1487, 1485, 1484
932, 1467, 740, 507, 505
933, 948, 949, 668, 492
934, 942, 1431, 1429, 1470
935, 747, 745, 815, 1551
936, 942, 743, 741, 1613
937, 608, 606, 607, 609
938, 439, 667, 1466, 437
939, 1425, 767, 697, 497
940, 754, 756, 755, 698
941, 437, 492, 436, 407
942, 1613, 1423, 1431, 942
943, 468, 491, 490, 467
944, 1502, 654, 514, 512
945, 1495, 478, 744, 1084
946, 753, 1434, 880, 754
947, 695, 696, 819, 823
948, 835, 1005, 1002, 836
949, 1600, 1533, 1504, 1506
950, 761, 910, 759, 760
951, 496, 499, 497, 495
952, 898, 882, 897, 1100
953, 1510, 657, 742, 850
954, 467, 490, 1469, 473
955, 702, 1522, 835, 704
956, 740, 1467, 946, 938
957, 1329, 1331, 947, 1328
958, 801, 809, 956, 1610
959, 1703, 257, 252, 254
960, 916, 914, 915, 993
961, 760, 1494, 762, 761
962, 664, 1550, 500, 501
963, 1446, 959, 1630, 1633
964, 819, 696, 820, 1619
965, 698, 1445, 498, 697
966, 511, 509, 1650, 521
967, 501, 677, 676, 664
968, 781, 783, 1568, 824
969, 960, 681, 598, 1623
970, 1224, 1223, 1449, 1450
971, 650, 647, 1723, 672
972, 1448, 1524, 396, 395
973, 928, 851, 852, 929
974, 1604, 1449, 1223, 1603
975, 810, 811, 770, 766
976, 740, 938, 917, 738
977, 959, 755, 757, 1630
978, 828, 907, 1835, 1028
979, 1468, 1466, 667, 1603
980, 511, 512, 510, 509
981, 339, 494, 413, 337
982, 257, 420, 419, 251
983, 832, 706, 833, 834
984, 423, 425, 1359, 1379
985, 946, 1328, 947, 938
986, 1373, 937, 1422, 1620
987, 1401, 359, 367, 1382
988, 1653, 172, 173, 241
989, 1564, 895, 1565, 1326
990, 152, 153, 228, 1746
991, 842, 691, 843, 884
992, 893, 892, 891, 954
993, 1366, 1364, 1365, 1969
994, 1039, 1041, 1037, 1038
995, 759, 910, 1630, 757
996, 356, 403, 357, 317
997, 1468, 1603, 998, 950
998, 2025, 1157, 2063, 874
999, 1668, 1274, 1063, 1667
1000, 586, 585, 584, 587
1001, 569, 572, 577, 1819
1002, 1598, 717, 1600, 1599
1003, 577, 700, 730, 1819
1004, 1517, 1672, 237, 1885
1005, 381, 383, 382, 380
1006, 626, 627, 640, 692
1007, 1532, 1478, 899, 833
1008, 256, 259, 733, 1777
1009, 352, 359, 358, 351
1010, 1534, 773, 988, 1525
1011, 957, 956, 809, 958
1012, 1730, 1927, 2022, 181
1013, 515, 857, 513, 514
1014, 1441, 1412, 941, 943
1015, 890, 789, 891, 892
1016, 1456, 1453, 1460, 1461
1017, 1809, 1822, 1321, 1046
1018, 1148, 1974, 2016, 2072
1019, 1599, 1600, 1506, 1682
1020, 1590, 830, 784, 782
1021, 1445, 698, 755, 959
1022, 679, 680, 671, 670
1023, 1059, 1707, 597, 793
1024, 671, 680, 695, 1632
1025, 720, 1536, 687, 719
1026, 1455, 1453, 1456, 1457
1027, 535, 534, 533, 1844
1028, 1631, 1629, 321, 1407
1029, 1486, 1665, 200, 2040
1030, 1569, 723, 780, 952
1031, 1430, 504, 731, 1728
1032, 879, 713, 878, 1187
1033, 921, 920, 894, 1891
1034, 939, 1289, 1288, 911
1035, 1404, 1405, 737, 1403
1036, 911, 912, 849, 848
1037, 1358, 983, 1739, 2029
1038, 1341, 446, 455, 1791
1039, 423, 421, 422, 424
1040, 606, 604, 605, 607
1041, 705, 1532, 706, 694
1042, 622, 621, 620, 623
1043, 931, 907, 874, 2063
1044, 1646, 831, 1408, 1406
1045, 632, 716, 751, 871
1046, 728, 666, 1400, 839
1047, 1747, 368, 370, 373
1048, 1141, 829, 851, 1608
1049, 646, 643, 645, 647
1050, 32, 31, 181, 1203
1051, 1974, 1838, 290, 294
1052, 221, 1349, 1686, 1824
1053, 1617, 883, 972, 1185
1054, 1684, 857, 515, 517
1055, 374, 1753, 663, 373
1056, 610, 608, 609, 611
1057, 1570, 951, 722, 719
1058, 561, 560, 559, 1816
1059, 1496, 1509, 1087, 1259
1060, 552, 550, 551, 553
1061, 1142, 829, 1141, 1826
1062, 724, 1444, 419, 421
1063, 531, 532, 1698, 716
1064, 375, 377, 376, 374
1065, 764, 762, 765, 766
1066, 1740, 1743, 616, 1888
1067, 771, 1535, 850, 742
1068, 682, 612, 1323, 1625
1069, 967, 921, 1000, 1219
1070, 1537, 830, 1538, 1539
1071, 588, 589, 586, 587
1072, 593, 592, 590, 1701
1073, 642, 643, 1616, 1767
1074, 1004, 1530, 836, 1003
1075, 1587, 954, 891, 789
1076, 1683, 1068, 1256, 1803
1077, 1146, 951, 1523, 1823
1078, 1025, 1024, 1023, 1622
1079, 1050, 1626, 713, 879
1080, 912, 1393, 983, 933
1081, 1607, 768, 1606, 1436
1082, 209, 69, 70, 1920
1083, 1560, 68, 69, 209
1084, 1083, 1410, 1433, 1447
1085, 924, 926, 1164, 1615
1086, 950, 998, 997, 995
1087, 1540, 1538, 830, 1590
1088, 1789, 318, 296, 298
1089, 262, 266, 263, 261
1090, 1736, 679, 670, 672
1091, 883, 751, 716, 971
1092, 814, 1008, 813, 739
1093, 1554, 1594, 896, 1553
1094, 354, 1413, 400, 355
1095, 1632, 695, 823, 1088
1096, 1172, 1171, 1740, 1888
1097, 430, 432, 408, 405
1098, 963, 1147, 873, 735
1099, 1557, 1556, 858, 1593
1100, 394, 1417, 405, 395
1101, 841, 690, 691, 842
1102, 1346, 1992, 206, 1928
1103, 585, 586, 1644, 864
1104, 1489, 1485, 1487, 1490
1105, 1639, 651, 1632, 1088
1106, 1690, 589, 592, 681
1107, 350, 352, 351, 349
1108, 272, 288, 1696, 289
1109, 427, 377, 1217, 1834
1110, 592, 593, 598, 681
1111, 656, 1471, 484, 655
1112, 604, 602, 603, 605
1113, 1837, 1286, 1104, 1105
1114, 1559, 1557, 1598, 1599
1115, 613, 611, 615, 1849
1116, 1377, 1085, 1463, 660
1117, 1690, 681, 1699, 1099
1118, 997, 1283, 1768, 995
1119, 1378, 962, 1751, 1194
1120, 112, 113, 1349, 221
1121, 850, 1461, 1460, 1510
1122, 1196, 1195, 1194, 1751
1123, 1148, 907, 1109, 1974
1124, 1578, 1222, 1224, 1451
1125, 824, 1568, 1053, 1052
1126, 1473, 813, 1009, 1716
1127, 590, 592, 589, 588
1128, 616, 601, 1352, 1888
1129, 90, 91, 1658, 202
1130, 1063, 988, 987, 1781
1131, 734, 675, 1464, 2106
1132, 1706, 1705, 1704, 2096
1133, 899, 1481, 867, 833
1134, 1681, 621, 622, 626
1135, 878, 713, 679, 1736
1136, 1209, 1351, 1354, 1815
1137, 979, 621, 1681, 1715
1138, 1601, 811, 810, 1493
1139, 930, 1386, 1385, 1384
1140, 443, 1359, 425, 435
1141, 532, 531, 530, 533
1142, 1853, 1133, 1356, 944
1143, 1771, 110, 1659, 1925
1144, 314, 316, 315, 288
1145, 318, 1789, 1702, 1806
1146, 244, 247, 1356, 243
1147, 1125, 1149, 1709, 1916
1148, 700, 1345, 816, 730
1149, 249, 944, 247, 248
1150, 767, 1425, 1426, 1427
1151, 1218, 897, 1601, 1602
1152, 1751, 1649, 1820, 1196
1153, 231, 60, 61, 1676
1154, 1763, 866, 1099, 1699
1155, 2074, 1725, 1919, 1112
1156, 1726, 1377, 660, 1411
1157, 355, 402, 1645, 313
1158, 1040, 1089, 1043, 1042
1159, 677, 501, 1519, 1118
1160, 890, 1548, 1065, 889
1161, 1594, 1595, 968, 825
1162, 1895, 1808, 452, 1926
1163, 955, 1581, 893, 954
1164, 536, 537, 534, 535
1165, 266, 262, 274, 275
1166, 1636, 1745, 1624, 1767
1167, 530, 529, 528, 1700
1168, 1644, 589, 1690, 1099
1169, 1406, 1407, 1405, 1404
1170, 298, 297, 299, 300
1171, 844, 1562, 1060, 845
1172, 1589, 1695, 207, 2044
1173, 1545, 306, 310, 776
1174, 1606, 768, 756, 754
1175, 1720, 1541, 2012, 311
1176, 234, 129, 130, 1678
1177, 1178, 1176, 1177, 1799
1178, 1710, 1345, 774, 777
1179, 1847, 1472, 1471, 711
1180, 805, 803, 854, 1596
1181, 973, 936, 974, 1954
1182, 1778, 428, 1230, 1859
1183, 304, 306, 1545, 1924
1184, 624, 626, 622, 623
1185, 2021, 567, 1828, 1238
1186, 1442, 1773, 238, 1911
1187, 1474, 1475, 1061, 1476
1188, 324, 326, 325, 323
1189, 1696, 737, 1405, 1772
1190, 730, 817, 1152, 1819
1191, 159, 160, 236, 1673
1192, 1369, 2046, 1315, 488
1193, 1296, 1792, 1178, 1799
1194, 620, 621, 619, 618
1195, 1681, 626, 692, 1715
1196, 1278, 977, 1848, 2088
1197, 937, 1373, 946, 1467
1198, 1667, 1063, 1781, 203
1199, 1621, 1617, 1760, 1612
1200, 1008, 1206, 1009, 813
1201, 125, 126, 1664, 226
1202, 1029, 796, 1028, 1030
1203, 917, 1313, 1482, 738
1204, 642, 640, 641, 643
1205, 1781, 1027, 1856, 203
1206, 459, 489, 1827, 456
1207, 821, 820, 696, 1626
1208, 770, 811, 881, 1738
1209, 446, 1341, 444, 445
1210, 600, 593, 1701, 1945
1211, 1921, 855, 1801, 2007
1212, 900, 1058, 847, 752
1213, 1393, 912, 911, 1288
1214, 48, 49, 211, 1675
1215, 229, 1768, 1283, 2053
1216, 618, 619, 614, 617
1217, 559, 560, 558, 557
1218, 636, 675, 674, 673
1219, 1464, 675, 636, 635
1220, 1605, 1297, 576, 1622
1221, 556, 576, 554, 555
1222, 1360, 578, 572, 574
1223, 1014, 1012, 1790, 2028
1224, 337, 413, 1376, 335
1225, 103, 104, 1667, 203
1226, 1801, 855, 1077, 1940
1227, 47, 48, 1675, 1671
1228, 1352, 601, 600, 1945
1229, 634, 689, 701, 1754
1230, 1778, 2052, 1090, 1937
1231, 1253, 1254, 1004, 1239
1232, 934, 1360, 1782, 936
1233, 263, 266, 1865, 265
1234, 774, 578, 775, 777
1235, 1672, 63, 64, 237
1236, 551, 550, 549, 1825
1237, 1217, 377, 375, 1260
1238, 189, 1500, 1499, 2055
1239, 902, 579, 540, 1727
1240, 1074, 885, 1015, 1134
1241, 1413, 354, 524, 1387
1242, 1304, 1346, 1010, 1011
1243, 1355, 2037, 1183, 973
1244, 216, 73, 1651, 1874
1245, 1557, 1559, 1558, 1556
1246, 1308, 1256, 1070, 1859
1247, 580, 551, 1825, 1987
1248, 983, 1358, 1267, 933
1249, 1461, 850, 1535, 1795
1250, 224, 120, 121, 1733
1251, 122, 123, 201, 1733
1252, 1737, 1322, 628, 1790
1253, 726, 625, 617, 1849
1254, 1225, 1222, 1578, 1971
1255, 318, 1806, 1839, 292
1256, 1680, 590, 588, 595
1257, 1567, 895, 889, 1065
1258, 1020, 1019, 1021, 1022
1259, 1621, 751, 883, 1617
1260, 302, 304, 1924, 311
1261, 425, 423, 424, 434
1262, 195, 162, 1674, 2080
1263, 1719, 710, 269, 271
1264, 584, 583, 582, 1766
1265, 1643, 871, 1119, 2019
1266, 1057, 638, 1056, 1898
1267, 985, 807, 1596, 1576
1268, 675, 734, 714, 712
1269, 1730, 1013, 1014, 1927
1270, 1602, 1601, 1493, 1785
1271, 1651, 74, 240, 2061
1272, 401, 402, 355, 400
1273, 1791, 1015, 1714, 1341
1274, 869, 865, 866, 1151
1275, 1756, 999, 1311, 1204
1276, 456, 455, 454, 457
1277, 796, 709, 828, 1028
1278, 1241, 1239, 1240, 1923
1279, 109, 110, 1771, 2000
1280, 690, 443, 652, 691
1281, 1105, 1104, 1097, 1106
1282, 918, 905, 919, 1932
1283, 188, 1670, 1244, 2047
1284, 1701, 1680, 1353, 1945
1285, 1772, 293, 289, 1696
1286, 1648, 1728, 1263, 1896
1287, 1213, 1221, 205, 1283
1288, 1454, 1451, 1452, 1832
1289, 1156, 434, 451, 1157
1290, 1746, 228, 1903, 1549
1291, 817, 859, 860, 1884
1292, 1204, 1311, 179, 16
1293, 970, 929, 852, 1614
1294, 1796, 1829, 982, 1695
1295, 823, 969, 999, 1088
1296, 111, 112, 221, 1659
1297, 1891, 1581, 1978, 1472
1298, 118, 119, 193, 1655
1299, 1099, 866, 864, 1644
1300, 431, 1419, 1242, 1697
1301, 1290, 1288, 191, 2011
1302, 2045, 1215, 1905, 208
1303, 816, 859, 817, 730
1304, 853, 594, 903, 904
1305, 399, 320, 398, 2095
1306, 1309, 856, 726, 1849
1307, 1397, 433, 404, 397
1308, 607, 605, 659, 1748
1309, 988, 1063, 1274, 1525
1310, 1734, 383, 638, 1057
1311, 1901, 1680, 595, 2008
1312, 980, 1625, 909, 979
1313, 1561, 1559, 1599, 1682
1314, 1127, 591, 1841, 1128
1315, 410, 426, 429, 1808
1316, 1708, 1419, 1418, 1836
1317, 1438, 1437, 1427, 1648
1318, 1872, 1266, 1853, 1380
1319, 538, 537, 536, 1707
1320, 484, 1471, 485, 448
1321, 43, 44, 1770, 1999
1322, 322, 324, 323, 309
1323, 1581, 955, 1294, 1978
1324, 1669, 168, 210, 1795
1325, 1491, 234, 1785, 1490
1326, 89, 90, 202, 1661
1327, 818, 541, 543, 1875
1328, 1294, 1951, 485, 1978
1329, 984, 1686, 1349, 1348
1330, 1841, 591, 594, 853
1331, 268, 269, 267, 265
1332, 230, 116, 117, 1655
1333, 198, 154, 155, 1788
1334, 279, 278, 280, 281
1335, 502, 347, 1278, 2088
1336, 1058, 900, 1093, 1908
1337, 140, 141, 242, 1652
1338, 536, 535, 597, 1707
1339, 1960, 1024, 1026, 1866
1340, 1354, 1351, 1353, 1901
1341, 1676, 61, 62, 196
1342, 281, 280, 282, 283
1343, 1775, 1923, 242, 2005
1344, 1732, 1313, 1754, 701
1345, 1528, 1770, 1656, 2077
1346, 1996, 417, 1729, 1159
1347, 1375, 608, 610, 682
1348, 256, 255, 258, 259
1349, 1140, 1139, 1025, 1622
1350, 192, 132, 1679, 1975
1351, 327, 326, 328, 329
1352, 448, 485, 1951, 418
1353, 954, 1587, 1579, 1155
1354, 304, 303, 305, 306
1355, 1555, 1553, 1749, 1920
1356, 1662, 150, 190, 2070
1357, 1775, 1981, 1241, 1923
1358, 131, 132, 192, 1678
1359, 533, 530, 1700, 1844
1360, 1619, 829, 1142, 1984
1361, 1032, 1033, 1031, 1030
1362, 1520, 761, 763, 2051
1363, 1508, 1515, 1516, 1517
1364, 190, 150, 151, 1746
1365, 1297, 552, 554, 576
1366, 19, 1357, 178, 20
1367, 1246, 1247, 409, 2054
1368, 1664, 1665, 1488, 1750
1369, 1725, 2074, 482, 2023
1370, 562, 564, 1324, 662
1371, 1040, 1042, 1039, 1038
1372, 1822, 557, 555, 1930
1373, 871, 872, 922, 1119
1374, 1614, 822, 821, 1818
1375, 1713, 1059, 793, 888
1376, 1584, 953, 1212, 1861
1377, 1641, 1685, 385, 1410
1378, 1049, 1048, 841, 1642
1379, 1236, 1169, 412, 2068
1380, 1420, 1419, 1708, 1915
1381, 81, 82, 205, 1741
1382, 1053, 1326, 1120, 1052
1383, 984, 1348, 1145, 965
1384, 1287, 1378, 184, 6
1385, 528, 526, 678, 1700
1386, 1393, 1288, 1290, 1739
1387, 1190, 1983, 213, 14
1388, 1459, 1458, 1454, 1957
1389, 1535, 771, 908, 1245
1390, 1669, 1245, 1670, 167
1391, 1402, 1424, 248, 246
1392, 1560, 1558, 1559, 1561
1393, 1388, 1385, 1386, 1390
1394, 384, 382, 383, 1734
1395, 460, 459, 458, 462
1396, 1284, 1164, 926, 1922
1397, 1765, 2037, 214, 2093
1398, 1830, 1697, 1122, 1952
1399, 1648, 1427, 1426, 1728
1400, 581, 582, 571, 570
1401, 1635, 877, 1399, 1631
1402, 1892, 886, 1826, 1141
1403, 1187, 878, 1188, 2041
1404, 539, 538, 540, 579
1405, 1805, 391, 1342, 1167
1406, 2027, 734, 2106, 1181
1407, 603, 602, 601, 616
1408, 1586, 1096, 1121, 2030
1409, 792, 597, 535, 1844
1410, 283, 282, 284, 285
1411, 1296, 545, 542, 479
1412, 189, 51, 52, 1663
1413, 1624, 640, 642, 1767
1414, 549, 546, 1277, 1825
1415, 1717, 235, 134, 135
1416, 1773, 1186, 1674, 238
1417, 1343, 391, 388, 387
1418, 1545, 776, 1544, 1924
1419, 1811, 1077, 1078, 1162
1420, 461, 464, 1301, 489
1421, 1541, 1538, 1540, 1702
1422, 1856, 1027, 1358, 2029
1423, 932, 2102, 2050, 1953
1424, 273, 314, 288, 272
1425, 1229, 1230, 428, 297
1426, 197, 1577, 1842, 55
1427, 868, 1096, 1586, 834
1428, 903, 1347, 905, 904
1429, 875, 876, 808, 870
1430, 1750, 1488, 1607, 1436
1431, 1267, 1027, 812, 1118
1432, 1767, 1616, 1900, 1258
1433, 1367, 1368, 1086, 1377
1434, 129, 234, 1910, 128
1435, 1549, 1295, 190, 1746
1436, 1558, 209, 1749, 1556
1437, 482, 274, 1264, 2023
1438, 1071, 1374, 1090, 1069
1439, 1851, 80, 1741, 1225
1440, 1295, 1549, 1548, 920
1441, 259, 258, 260, 261
1442, 1088, 1103, 1647, 1639
1443, 210, 168, 169, 2032
1444, 1077, 855, 856, 1078
1445, 1399, 1398, 1397, 1629
1446, 580, 1987, 1321, 1930
1447, 379, 1184, 381, 380
1448, 861, 1712, 1007, 1006
1449, 272, 289, 271, 270
1450, 582, 581, 591, 1766
1451, 1272, 1181, 1132, 1967
1452, 1387, 1389, 1729, 1413
1453, 1253, 1239, 222, 1759
1454, 1381, 1110, 1783, 180
1455, 1911, 238, 164, 165
1456, 369, 371, 370, 368
1457, 1889, 1435, 2001, 1660
1458, 1762, 179, 1311, 1984
1459, 445, 444, 435, 1867
1460, 1478, 1138, 1479, 1480
1461, 1092, 1091, 1640, 1998
1462, 270, 271, 269, 268
1463, 793, 792, 887, 888
1464, 1810, 1094, 1481, 1980
1465, 227, 53, 54, 1842
1466, 147, 148, 212, 1887
1467, 708, 796, 1303, 1857
1468, 928, 1315, 1316, 1608
1469, 1211, 276, 482, 2074
1470, 1588, 1676, 1831, 1054
1471, 940, 1879, 1317, 2102
1472, 653, 608, 1375, 1959
1473, 1080, 1079, 1081, 1917
1474, 1091, 1873, 1394, 1640
1475, 1232, 1308, 1859, 1230
1476, 562, 662, 560, 561
1477, 1086, 2104, 1721, 963
1478, 1539, 1543, 1542, 1537
1479, 1518, 1054, 1831, 2024
1480, 1488, 1486, 1484, 1607
1481, 1745, 1636, 1150, 1126
1482, 1347, 1802, 567, 2021
1483, 1265, 2083, 1642, 1953
1484, 1595, 1594, 1874, 2061
1485, 1554, 216, 1874, 1594
1486, 1870, 2002, 862, 273
1487, 330, 1208, 332, 331
1488, 900, 752, 901, 1571
1489, 1342, 1343, 1042, 1043
1490, 1171, 1173, 1333, 1740
1491, 662, 2035, 1722, 560
1492, 57, 58, 1657, 1882
1493, 1348, 114, 206, 1992
1494, 587, 584, 1766, 1897
1495, 1724, 1256, 1308, 1890
1496, 1176, 1178, 1179, 1854
1497, 1766, 591, 1127, 1897
1498, 199, 94, 95, 1793
1499, 222, 1239, 1241, 1981
1500, 860, 859, 861, 1006
1501, 1628, 826, 935, 1183
1502, 547, 568, 569, 1285
1503, 98, 99, 191, 1864
1504, 411, 280, 1271, 2076
1505, 1361, 1727, 596, 1947
1506, 1929, 338, 336, 2094
1507, 1661, 202, 1810, 1980
1508, 1378, 1287, 966, 962
1509, 1457, 1456, 1906, 2032
1510, 1246, 1815, 1129, 1128
1511, 1201, 2026, 18, 17
1512, 1247, 1246, 1128, 1841
1513, 1071, 1069, 1067, 2007
1514, 1337, 1037, 1041, 1339
1515, 2091, 1878, 1162, 1182
1516, 1878, 415, 1811, 1162
1517, 1059, 1713, 1712, 1947
1518, 1883, 1197, 1196, 1820
1519, 1034, 1035, 1036, 1335
1520, 138, 139, 218, 1758
1521, 433, 1397, 1398, 2009
1522, 1297, 1220, 840, 552
1523, 913, 1122, 1242, 1993
1524, 553, 551, 580, 1930
1525, 387, 384, 1734, 1899
1526, 1636, 1258, 1191, 2082
1527, 1263, 1207, 1262, 1896
1528, 1831, 1676, 196, 2024
1529, 1045, 1044, 1046, 1047
1530, 1031, 1034, 1302, 1029
1531, 1927, 1014, 2028, 1189
1532, 1289, 939, 1961, 2085
1533, 1770, 1528, 239, 1999
1534, 1026, 1024, 1025, 1139
1535, 2033, 1969, 1365, 2002
1536, 410, 1808, 1282, 2095
1537, 9, 1237, 176, 10
1538, 1657, 1997, 1575, 1882
1539, 33, 32, 1203, 2093
1540, 1710, 777, 1113, 1944
1541, 295, 292, 286, 2098
1542, 1946, 1228, 931, 2063
1543, 1452, 1453, 1455, 1832
1544, 1091, 1055, 1755, 1873
1545, 1799, 1177, 1277, 545
1546, 573, 1822, 1809, 2084
1547, 528, 529, 527, 526
1548, 1353, 1351, 1352, 1945
1549, 470, 1391, 466, 469
1550, 299, 1306, 301, 300
1551, 328, 326, 1168, 2006
1552, 1973, 1814, 1332, 710
1553, 187, 66, 67, 1913
1554, 1464, 1877, 1180, 2106
1555, 92, 93, 1784, 225
1556, 415, 1374, 1940, 1811
1557, 1706, 1814, 1813, 1705
1558, 1225, 1741, 1221, 1222
1559, 541, 479, 542, 543
1560, 1298, 887, 1755, 1055
1561, 1171, 1170, 1169, 1173
1562, 137, 138, 1758, 1909
1563, 993, 915, 1144, 2069
1564, 163, 164, 238, 1674
1565, 1769, 1691, 579, 1944
1566, 229, 83, 84, 1654
1567, 294, 290, 293, 319
1568, 1525, 1274, 1526, 2066
1569, 414, 381, 1184, 1968
1570, 546, 547, 544, 545
1571, 1809, 1046, 1044, 2084
1572, 191, 1288, 1289, 1864
1573, 1343, 387, 1899, 1344
1574, 1006, 1007, 1834, 1948
1575, 1929, 2094, 1249, 2031
1576, 1060, 1562, 1563, 1821
1577, 414, 1298, 1055, 638
1578, 2041, 1275, 411, 2076
1579, 149, 150, 1662, 1943
1580, 372, 1260, 375, 374
1581, 379, 377, 427, 2086
1582, 1180, 1877, 1131, 1132
1583, 1899, 1734, 1057, 1931
1584, 1232, 1233, 1692, 1890
1585, 550, 1243, 548, 549
1586, 1262, 1207, 193, 1988
1587, 1544, 2101, 1543, 1539
1588, 307, 309, 308, 306
1589, 904, 905, 918, 1881
1590, 2022, 1927, 1143, 1991
1591, 397, 404, 398, 320
1592, 733, 1868, 1935, 2096
1593, 1244, 1670, 1245, 908
1594, 1311, 999, 969, 1984
1595, 1902, 189, 1663, 2079
1596, 707, 453, 445, 1867
1597, 409, 332, 1208, 2054
1598, 1229, 1314, 1231, 1230
1599, 161, 162, 195, 1955
1600, 1873, 1268, 678, 1394
1601, 428, 1937, 299, 297
1602, 1812, 211, 49, 50
1603, 472, 466, 1391, 2081
1604, 206, 114, 115, 1928
1605, 986, 966, 1161, 1817
1606, 207, 58, 59, 2044
1607, 1719, 271, 290, 1838
1608, 1764, 1303, 1302, 2013
1609, 284, 282, 1269, 1995
1610, 715, 848, 849, 1993
1611, 1271, 2015, 2010, 2076
1612, 18, 2026, 1357, 19
1613, 1344, 1039, 1042, 1343
1614, 100, 101, 233, 2011
1615, 1658, 1572, 1810, 202
1616, 1998, 1338, 1339, 1092
1617, 1365, 1364, 862, 2002
1618, 1855, 1375, 682, 1625
1619, 1934, 1310, 1018, 1782
1620, 1227, 931, 1228, 1973
1621, 975, 905, 1347, 2021
1622, 1173, 1169, 1236, 2018
1623, 1242, 1419, 1420, 1993
1624, 2096, 1704, 1777, 733
1625, 470, 526, 527, 2019
1626, 3, 109, 2000, 75
1627, 2, 43, 1999, 108
1628, 415, 301, 1306, 1374
1629, 1918, 1817, 1161, 2071
1630, 1713, 1307, 1007, 1712
1631, 1693, 1692, 1233, 1972
1632, 275, 277, 1869, 732
1633, 1762, 1984, 1142, 2060
1634, 1827, 489, 1904, 1134
1635, 1727, 1361, 1205, 1994
1636, 1910, 234, 1491, 2040
1637, 197, 55, 56, 1882
1638, 1352, 1351, 1172, 1888
1639, 261, 263, 264, 1868
1640, 568, 547, 548, 2020
1641, 2005, 141, 5, 142
1642, 1554, 1553, 1555, 2017
1643, 2095, 1282, 1912, 399
1644, 1019, 974, 1018, 2073
1645, 2002, 1870, 1153, 2033
1646, 1816, 559, 573, 2084
1647, 1917, 1081, 2068, 1276
1648, 2049, 885, 1074, 1922
1649, 2089, 1705, 1813, 1158
1650, 371, 2064, 372, 370
1651, 1092, 1339, 1898, 1056
1652, 1307, 1713, 888, 1968
1653, 2031, 1694, 341, 1929
1654, 1229, 297, 295, 1314
1655, 1350, 480, 2006, 1170
1656, 1565, 895, 1567, 1566
1657, 2036, 1388, 1390, 1735
1658, 33, 2093, 214, 34
1659, 859, 816, 1205, 1361
1660, 1890, 1692, 649, 1724
1661, 1868, 733, 259, 261
1662, 1044, 975, 1238, 2084
1663, 276, 1211, 2015, 278
1664, 1866, 177, 1261, 1960
1665, 300, 302, 311, 2012
1666, 1807, 1000, 1073, 1941
1667, 1314, 295, 2098, 1995
1668, 1527, 107, 239, 1528
1669, 1876, 1300, 1948, 1217
1670, 1787, 1618, 2056, 185
1671, 1707, 1059, 1947, 596
1672, 1197, 1883, 1959, 1199
1673, 1962, 219, 2042, 1571
1674, 1249, 906, 1881, 2031
1675, 1694, 918, 1932, 1299
1676, 182, 1958, 2082, 1191
1677, 840, 1220, 2073, 1310
1678, 2105, 1167, 1166, 1886
1679, 2089, 1776, 1711, 1705
1680, 1859, 1070, 2052, 1778
1681, 2034, 176, 1237, 2058
1682, 2004, 174, 4, 76
1683, 1858, 1325, 488, 1315
1684, 30, 1966, 1291, 31
1685, 27, 1986, 1939, 28
1686, 1254, 1253, 1255, 1941
1687, 1577, 197, 1576, 1863
1688, 412, 324, 1276, 2068
1689, 26, 183, 1986, 27
1690, 83, 229, 2053, 82
1691, 29, 175, 1966, 30
1692, 116, 230, 1928, 115
1693, 480, 330, 328, 2006
1694, 287, 1721, 2104, 1845
1695, 2077, 1656, 219, 1962
1696, 472, 2043, 464, 466
1697, 281, 1845, 1880, 279
1698, 1735, 764, 769, 2036
1699, 1257, 1983, 1190, 1191
1700, 1981, 1775, 143, 144
1701, 1983, 1103, 1756, 213
1702, 1943, 212, 148, 149
1703, 1529, 1528, 2077, 1962
1704, 1267, 1118, 1952, 933
1705, 481, 1969, 1869, 277
1706, 1281, 199, 1967, 1130
1707, 1955, 236, 160, 161
1708, 231, 1589, 2044, 60
1709, 462, 2075, 1833, 460
1710, 2104, 1086, 1368, 1845
1711, 2079, 227, 1861, 1212
1712, 211, 1259, 1908, 1675
1713, 1098, 1325, 1858, 929
1714, 1399, 877, 2030, 1398
1715, 1458, 220, 1971, 1578
1716, 2055, 1812, 50, 51
1717, 2094, 334, 1248, 1249
1718, 1609, 940, 2049, 1922
1719, 120, 224, 1988, 119
1720, 1760, 1939, 1163, 1612
1721, 1897, 1127, 2008, 595
1722, 2035, 1139, 1140, 1722
1723, 2105, 791, 1836, 1167
1724, 2053, 1283, 205, 82
1725, 2011, 191, 99, 100
1726, 68, 1560, 1913, 67
1727, 1833, 2075, 1846, 463
1728, 2054, 1209, 1815, 1246
1729, 1216, 1717, 2103, 1949
1730, 91, 92, 225, 1658
1731, 177, 2069, 1327, 39
1732, 1645, 1293, 2101, 776
1733, 2100, 305, 2091, 1182
1734, 2062, 1208, 330, 480
1735, 294, 320, 2016, 1974
1736, 1972, 1188, 2090, 1693
1737, 1192, 1265, 1953, 2050
1738, 1917, 2100, 1182, 1080
1739, 1300, 1875, 1884, 860
1740, 2048, 1338, 471, 1846
1741, 906, 1247, 1841, 853
1742, 1979, 1334, 1748, 659
1743, 365, 1280, 2078, 1792
*ELEMENT, TYPE=S3R, ELSET=SHELL_TRIS
1744, 1082, 2018, 1236
1745, 311, 1924, 1720
1746, 1227, 1973, 710
1747, 1315, 2046, 1316
1748, 776, 2101, 1544
1749, 1887, 1941, 1255
1750, 1307, 1834, 1007
1751, 1488, 1665, 1486
1752, 1333, 1743, 1740
1753, 1321, 1987, 1175
1754, 299, 1937, 1306
1755, 391, 1343, 1342
1756, 412, 1169, 1168
1757, 1202, 2037, 1355
1758, 464, 2043, 1301
1759, 1235, 1792, 1296
1760, 914, 1340, 865
1761, 192, 1975, 1218
1762, 153, 1566, 228
1763, 369, 479, 371
1764, 414, 1968, 1298
1765, 774, 1345, 700
1766, 178, 1357, 245
1767, 1243, 2020, 548
1768, 372, 2064, 1260
1769, 1171, 1172, 1170
1770, 262, 1264, 274
1771, 470, 2019, 1391
1772, 1274, 1668, 215
1773, 322, 1276, 324
1774, 1267, 1358, 1027
1775, 1213, 1283, 997
1776, 568, 572, 569
1777, 274, 482, 276
1778, 175, 1760, 1617
1779, 1221, 1741, 205
1780, 231, 1676, 1588
1781, 1575, 1997, 1574
1782, 1297, 1605, 1220
1783, 1629, 1631, 1399
1784, 856, 1309, 1079
1785, 944, 1356, 247
1786, 331, 1634, 329
1787, 1319, 1591, 1318
1788, 582, 583, 571
1789, 267, 1332, 264
1790, 553, 554, 552
1791, 1350, 1351, 1209
1792, 1055, 1056, 638
1793, 7, 1193, 8
1794, 13, 1190, 14
1795, 20, 243, 21
1796, 23, 1192, 24
1797, 572, 578, 577
1798, 1013, 1730, 1291
1799, 1129, 1815, 1354
1800, 1558, 1560, 209
1801, 909, 1625, 1323
1802, 1446, 1633, 364
1803, 411, 1275, 1269
1804, 1079, 1082, 1081
1805, 1070, 1256, 1068
1806, 584, 585, 583
1807, 379, 2086, 1184
1808, 454, 455, 446
1809, 1304, 1992, 1346
1810, 840, 1310, 1243
1811, 575, 1324, 564
1812, 347, 502, 350
1813, 1048, 1379, 1359
1814, 1554, 2017, 216
1815, 1627, 1718, 1330
1816, 530, 531, 529
1817, 341, 1694, 1299
1818, 1281, 1784, 93
1819, 1380, 1444, 724
1820, 463, 464, 461
1821, 545, 1277, 546
1822, 1654, 1970, 1137
1823, 560, 1722, 558
1824, 1642, 2083, 1049
1825, 1160, 1879, 1154
1826, 589, 1644, 586
1827, 1313, 1732, 1482
1828, 456, 1827, 455
1829, 1122, 1697, 1242
1830, 243, 1356, 1133
1831, 350, 1280, 352
1832, 1499, 1500, 1498
1833, 831, 1635, 1408
1834, 1382, 1383, 1064
1835, 1385, 1388, 1387
1836, 11, 1958, 12
1837, 21, 2065, 22
1838, 975, 2021, 1238
1839, 693, 1646, 1409
1840, 1064, 1400, 666
1841, 359, 1401, 358
1842, 1217, 1948, 1834
1843, 382, 1685, 380
1844, 1377, 1726, 1367
1845, 547, 1285, 544
1846, 1075, 1641, 957
1847, 423, 1379, 421
1848, 316, 1411, 356
1849, 1372, 1373, 343
1850, 321, 1629, 319
1851, 624, 627, 626
1852, 531, 716, 632
1853, 725, 1623, 602
1854, 317, 1403, 315
1855, 314, 1363, 316
1856, 498, 1395, 495
1857, 775, 826, 777
1858, 1295, 2070, 190
1859, 680, 696, 695
1860, 841, 1048, 690
1861, 1412, 1441, 992
1862, 827, 1113, 777
1863, 934, 936, 935
1864, 504, 1430, 499
1865, 390, 1416, 394
1866, 819, 969, 823
1867, 971, 972, 883
1868, 248, 1424, 250
1869, 608, 653, 606
1870, 1123, 1124, 980
1871, 843, 885, 884
1872, 923, 924, 922
1873, 396, 1524, 1447
1874, 1434, 1435, 880
1875, 1448, 1495, 1084
1876, 822, 851, 829
1877, 1012, 1014, 1013
1878, 993, 994, 916
1879, 1427, 1437, 1434
1880, 925, 926, 924
1881, 1085, 1511, 1463
1882, 658, 1604, 475
1883, 639, 1473, 506
1884, 647, 650, 648
1885, 478, 1495, 432
1886, 927, 1163, 1160
1887, 711, 1471, 656
1888, 1478, 1480, 899
1889, 686, 1511, 735
1890, 765, 1492, 766
1891, 684, 1501, 683
1892, 1483, 1494, 760
1893, 668, 1512, 669
1894, 1496, 1498, 815
1895, 762, 1494, 765
1896, 508, 1509, 745
1897, 1502, 1503, 654
1898, 500, 1550, 508
1899, 736, 1514, 665
1900, 714, 1513, 848
1901, 1147, 1523, 873
1902, 1524, 1611, 1610
1903, 687, 1536, 684
1904, 847, 1550, 664
1905, 761, 1520, 910
1906, 1250, 1531, 1002
1907, 706, 1532, 833
1908, 858, 1556, 1552
1909, 1564, 1573, 895
1910, 723, 1569, 721
1911, 798, 1580, 800
1912, 951, 1570, 1523
1913, 633, 634, 630
1914, 834, 877, 832
1915, 749, 825, 750
1916, 1259, 1497, 1496
1917, 1453, 1546, 1460
1918, 783, 1573, 1568
1919, 805, 806, 804
1920, 633, 858, 688
1921, 1292, 1294, 955
1922, 1490, 1492, 1489
1923, 987, 988, 773
1924, 892, 1548, 890
1925, 954, 1155, 955
1926, 722, 951, 778
1927, 728, 838, 837
1928, 811, 882, 881
1929, 964, 965, 750
1930, 803, 1580, 854
1931, 1053, 1564, 1326
1932, 1095, 1572, 1097
1933, 893, 894, 892
1934, 787, 788, 785
1935, 824, 1052, 952
1936, 837, 1547, 727
1937, 912, 933, 913
1938, 1104, 1121, 1096
1939, 807, 808, 806
1940, 921, 967, 920
1941, 845, 1536, 720
1942, 1106, 1107, 1105
1943, 677, 1118, 812
1944, 772, 941, 908
1945, 978, 1054, 837
1946, 1450, 1453, 1452
1947, 985, 1576, 1575
1948, 1108, 1130, 1107
1949, 1138, 1478, 1477
1950, 896, 1594, 825
1951, 689, 1591, 701
1952, 779, 1592, 782
1953, 1552, 1553, 896
1954, 746, 1084, 744
1955, 516, 517, 515
1956, 814, 1011, 1010
1957, 995, 996, 949
1958, 990, 992, 795
1959, 1484, 1485, 1483
1960, 704, 1530, 711
1961, 518, 1514, 1502
1962, 741, 742, 657
1963, 795, 1414, 685
1964, 511, 521, 518
1965, 683, 794, 685
1966, 491, 686, 684
1967, 758, 759, 757
1968, 675, 712, 674
1969, 738, 739, 639
1970, 438, 474, 439
1971, 756, 757, 755
1972, 492, 493, 436
1973, 430, 476, 432
1974, 483, 484, 448
1975, 506, 731, 504
1976, 358, 360, 351
1977, 697, 767, 753
1978, 447, 448, 418
1979, 486, 635, 487
1980, 768, 1607, 1484
1981, 928, 1608, 851
1982, 440, 442, 441
1983, 1154, 1609, 925
1984, 799, 1611, 748
1985, 249, 1444, 944
1986, 449, 486, 450
1987, 363, 406, 362
1988, 1406, 1408, 1407
1989, 646, 1616, 643
1990, 392, 1433, 389
1991, 494, 1422, 496
1992, 345, 347, 346
1993, 869, 1618, 915
1994, 245, 361, 246
1995, 829, 1619, 820
1996, 910, 1633, 1630
1997, 388, 389, 386
1998, 631, 1382, 367
1999, 599, 1623, 598
2000, 1605, 1622, 1023
2001, 872, 1621, 1612
2002, 312, 313, 310
2003, 308, 1384, 312
2004, 1331, 1637, 947
2005, 1521, 1936, 1634
2006, 1247, 1248, 409
2007, 871, 1643, 632
2008, 1623, 1649, 960
2009, 366, 368, 367
2010, 8, 1237, 9
2011, 25, 183, 26
2012, 15, 1204, 16
2013, 28, 175, 29
2014, 34, 1202, 35
2015, 14, 213, 15
2016, 24, 1200, 25
2017, 273, 862, 314
2018, 1263, 1716, 1207
2019, 253, 254, 252
2020, 1011, 1731, 1319
2021, 1710, 1994, 1345
2022, 737, 1696, 288
2023, 74, 1651, 73
2024, 140, 1652, 139
2025, 111, 1659, 110
2026, 53, 1663, 52
2027, 86, 194, 85
2028, 46, 219, 45
2029, 103, 203, 102
2030, 136, 204, 135
2031, 85, 1654, 84
2032, 118, 1655, 117
2033, 97, 232, 96
2034, 124, 1660, 123
2035, 163, 1674, 162
2036, 125, 226, 124
2037, 158, 208, 157
2038, 159, 1673, 158
2039, 106, 215, 105
2040, 133, 1679, 132
2041, 166, 188, 165
2042, 89, 1661, 88
2043, 63, 196, 62
2044, 128, 200, 127
2045, 66, 1677, 65
2046, 102, 1666, 101
2047, 131, 1678, 130
2048, 168, 1669, 167
2049, 47, 1671, 46
2050, 333, 1752, 364
2051, 1415, 2035, 662
2052, 555, 557, 556
2053, 326, 327, 325
2054, 1361, 1947, 1712
2055, 1179, 2092, 1854
2056, 1322, 1698, 532
2057, 716, 1698, 971
2058, 579, 1691, 539
2059, 377, 378, 376
2060, 600, 601, 599
2061, 1457, 1964, 1455
2062, 1310, 2073, 1018
2063, 764, 1735, 763
2064, 1232, 1890, 1308
2065, 172, 1653, 217
2066, 104, 1668, 1667
2067, 126, 1665, 1664
2068, 770, 1738, 769
2069, 1774, 1804, 1459
2070, 297, 298, 296
2071, 1597, 1806, 1702
2072, 1648, 1896, 1438
2073, 963, 1721, 1147
2074, 1157, 2025, 1156
2075, 1231, 1234, 1233
2076, 641, 1803, 644
2077, 218, 2059, 1531
2078, 10, 1709, 11
2079, 1529, 2066, 1526
2080, 1329, 1718, 1331
2081, 679, 713, 680
2082, 1366, 1367, 1364
2083, 979, 1715, 981
2084, 1103, 1982, 1647
2085, 1036, 1337, 1336
2086, 1186, 1773, 990
2087, 146, 1759, 145
2088, 1296, 1799, 545
2089, 792, 1844, 1268
2090, 1697, 1830, 476
2091, 241, 1957, 1653
2092, 1186, 2080, 1674
2093, 336, 337, 335
2094, 1595, 1824, 968
2095, 1649, 1751, 962
2096, 1260, 1876, 1217
2097, 1008, 1800, 1206
2098, 1346, 1800, 1010
2099, 1416, 1805, 1418
2100, 223, 1980, 1480
2101, 1000, 1807, 1219
2102, 611, 613, 612
2103, 818, 2064, 541
2104, 1253, 1759, 1255
2105, 1061, 1821, 1476
2106, 982, 1829, 875
2107, 1393, 1739, 983
2108, 122, 1733, 121
2109, 563, 565, 564
2110, 866, 1763, 1151
2111, 81, 1741, 80
2112, 838, 1852, 1111
2113, 465, 469, 466
2114, 152, 1746, 151
2115, 1683, 1803, 627
2116, 1101, 1862, 1216
2117, 1813, 1946, 1158
2118, 1622, 1757, 1140
2119, 635, 1877, 1464
2120, 201, 2001, 1437
2121, 1517, 1885, 1508
2122, 674, 1886, 673
2123, 189, 1902, 1500
2124, 921, 1891, 1072
2125, 1737, 1790, 1012
2126, 157, 1761, 156
2127, 1636, 1767, 1258
2128, 332, 333, 331
2129, 1461, 1906, 1456
2130, 449, 1907, 522
2131, 1664, 1750, 226
2132, 1189, 1769, 1114
2133, 1123, 1916, 1270
2134, 1561, 1913, 1560
2135, 1139, 1989, 1026
2136, 565, 570, 566
2137, 1334, 1979, 1333
2138, 1522, 1942, 1252
2139, 410, 2095, 398
2140, 574, 2020, 1934
2141, 1513, 1961, 939
2142, 1030, 1031, 1029
2143, 1138, 1970, 1479
2144, 1656, 1770, 44
2145, 1680, 1701, 590
2146, 401, 1990, 402
2147, 940, 2102, 884
2148, 1543, 2097, 1542
2149, 1579, 2097, 1155
2150, 1476, 2080, 1474
2151, 1219, 2070, 967
2152, 1636, 2082, 1150
2153, 901, 2066, 1571
2154, 1486, 2040, 1487
2155, 1412, 2047, 1244
2156, 303, 304, 302
2157, 1015, 1791, 1134
2158, 221, 1824, 1659
2159, 156, 1788, 155
2160, 1112, 1919, 1818
2161, 1402, 2046, 1424
2162, 255, 256, 254
2163, 973, 1954, 1355
2164, 171, 1964, 170
2165, 707, 2025, 709
2166, 596, 1727, 540
2167, 96, 1793, 95
2168, 186, 2065, 1266
2169, 296, 318, 292
2170, 1164, 2043, 1615
2171, 72, 2017, 71
2172, 1065, 1903, 1567
2173, 452, 1808, 429
2174, 1348, 1992, 1145
2175, 1268, 1873, 1755
2176, 1340, 1840, 575
2177, 222, 1981, 144
2178, 874, 907, 828
2179, 119, 1988, 193
2180, 715, 1915, 712
2181, 661, 1711, 420
2182, 71, 1920, 70
2183, 189, 2055, 51
2184, 931, 1109, 907
2185, 2003, 2051, 1392
2186, 1317, 1879, 183
2187, 1727, 1994, 902
2188, 1316, 1963, 1608
2189, 260, 262, 261
2190, 1067, 1069, 1068
2191, 55, 1842, 54
2192, 445, 453, 446
2193, 286, 291, 285
2194, 80, 1851, 79
2195, 1035, 1038, 1037
2196, 1651, 2061, 1874
2197, 1338, 2048, 1336
2198, 422, 1776, 424
2199, 98, 1864, 97
2200, 457, 1764, 458
2201, 581, 594, 591
2202, 605, 1743, 659
2203, 1832, 1957, 1454
2204, 792, 793, 597
2205, 726, 856, 855
2206, 1706, 2096, 1935
2207, 57, 1882, 56
2208, 1680, 1901, 1353
2209, 623, 1794, 1066
2210, 709, 796, 708
2211, 902, 1944, 579
2212, 147, 1887, 146
2213, 1111, 1829, 1796
2214, 1517, 2024, 1672
2215, 1134, 1904, 1074
2216, 970, 1919, 1725
2217, 1100, 1975, 1862
2218, 1093, 2042, 1671
2219, 170, 2032, 169
2220, 338, 1929, 341
2221, 137, 1909, 136
2222, 569, 1819, 1285
2223, 185, 1918, 42
2224, 1885, 2067, 1507
2225, 1381, 1954, 1020
2226, 1682, 2067, 187
2227, 1892, 1963, 361
2228, 1251, 2057, 1909
2229, 1045, 1848, 976
2230, 703, 1956, 1942
2231, 454, 1857, 457
2232, 932, 1953, 1642
2233, 1563, 2045, 1673
2234, 1779, 1780, 615
2235, 209, 1920, 1749
2236, 1465, 1965, 1956
2237, 708, 1857, 453
2238, 1691, 2028, 1790
2239, 1240, 2059, 1923
2240, 1951, 1990, 418
2241, 523, 1977, 1965
2242, 1817, 2056, 1151
2243, 1695, 1997, 207
2244, 233, 2029, 1739
2245, 1439, 1996, 1977
2246, 1210, 1989, 994
2247, 1811, 1940, 1077
2248, 469, 1860, 525
2249, 1826, 2060, 1142
2250, 1995, 2098, 284
2251, 1071, 2007, 1801
2252, 1148, 1835, 907
2253, 1156, 1867, 434
2254, 1911, 2047, 1442
2255, 1273, 2027, 1181
2256, 1814, 1973, 1228
2257, 1615, 2081, 1119
2258, 1899, 1931, 1344
2259, 141, 2005, 242
2260, 1110, 2039, 1783
2261, 1047, 1854, 1305
2262, 60, 2044, 59
2263, 977, 1932, 919
2264, 1856, 2029, 1666
2265, 817, 1884, 1152
2266, 1778, 1937, 428
2267, 1090, 2052, 1069
2268, 1838, 1974, 1109
2269, 1898, 1931, 1057
2270, 1895, 1926, 1371
2271, 2088, 2092, 502
2272, 240, 2000, 1771
2273, 1822, 1930, 1321
2274, 241, 2004, 1774
2275, 1289, 2085, 1864
2276, 1787, 2038, 1144
2277, 1900, 1982, 1258
2278, 210, 2032, 1906
2279, 1225, 1971, 1851
2280, 1725, 2023, 1098
2281, 2041, 2076, 1187
2282, 1793, 2099, 1272
2283, 1872, 2083, 1266
2284, 1201, 2060, 2026
2285, 1273, 2085, 1961
2286, 1860, 1998, 1640
2287, 1880, 1985, 481
2288, 2057, 2103, 204
2289, 543, 1976, 1875
2290, 1921, 2007, 1066
2291, 672, 2090, 1736
2292, 1595, 2061, 1925
2293, 1946, 2063, 1157
2294, 1305, 2088, 1848
2295, 1991, 2093, 1203
*NSET, NSET=ALL_NODES, GENERATE
1, 2106, 1
*ELSET, ELSET=SHELL_QUADS, GENERATE
1, 1743, 1
*ELSET, ELSET=SHELL_TRIS, GENERATE
1744, 2295, 1
*ELSET, ELSET=EALL, GENERATE
1, 2295, 1
